
 stresses (elem, integ.pnt.,sxx,syy,szz,sxy,sxz,syz) for set SOLID_1_1_SOLID_ELSET and time  0.1000000E+01

         1   1 -2.648407E+07  5.036759E+05  3.298690E+07  3.366997E+07  2.473462E+07  2.656917E+07
         1   2 -6.541873E+07 -8.363274E+06  7.265302E+06  2.596313E+07  4.934251E+07  6.604268E+07
         1   3  1.976249E+07  2.357024E+07  2.850866E+07  1.662502E+07  4.306702E+07 -1.735993E+07
         1   4 -1.848369E+07  1.942304E+07  1.326981E+07  7.938379E+06  5.028120E+07  1.039244E+06
         1   5 -1.580316E+08  1.205587E+07 -3.011696E+06 -1.405159E+07  2.181317E+07  1.669565E+07
         1   6 -2.309431E+08 -3.401031E+07 -5.008613E+07 -3.593015E+07  4.843171E+07  5.828458E+07
         1   7 -9.221502E+07  2.085867E+07 -5.898064E+06 -2.701663E+07  3.728219E+07 -2.511680E+07
         1   8 -1.689781E+08 -2.537527E+07 -4.531800E+07 -5.175911E+07  4.677964E+07 -4.327312E+06
         2   1  7.748493E+06 -1.227627E+07  1.461760E+07  4.033069E+07 -1.093331E+08  2.391100E+07
         2   2  3.145163E+07  2.912345E+06 -5.989482E+06  2.571000E+07  1.418317E+07 -5.320653E+07
         2   3 -6.004186E+05  4.018685E+06  2.977807E+07  3.834352E+07 -5.626075E+07  5.772496E+07
         2   4  1.003085E+07  9.415123E+06 -1.657110E+07  2.349398E+07  4.887914E+07 -2.317954E+07
         2   5  8.823431E+06  3.457811E+06  1.966031E+07  1.080658E+07 -9.649291E+07  2.978662E+07
         2   6  1.543906E+06 -6.103173E+06 -1.766645E+07  6.888974E+06  2.048032E+07 -4.249423E+07
         2   7  1.198240E+07  1.322008E+07  3.631333E+07  1.027412E+07 -3.882611E+07  6.843444E+07
         2   8 -6.774654E+06 -6.939639E+06 -2.651918E+07  6.295193E+06  6.039372E+07 -7.005214E+06
         3   1 -8.823431E+06 -3.457811E+06 -1.966031E+07 -1.080658E+07 -9.649291E+07  2.978662E+07
         3   2 -1.543906E+06  6.103173E+06  1.766645E+07 -6.888974E+06  2.048032E+07 -4.249423E+07
         3   3 -1.198240E+07 -1.322008E+07 -3.631333E+07 -1.027412E+07 -3.882611E+07  6.843444E+07
         3   4  6.774654E+06  6.939639E+06  2.651918E+07 -6.295193E+06  6.039372E+07 -7.005215E+06
         3   5 -7.748493E+06  1.227627E+07 -1.461760E+07 -4.033069E+07 -1.093331E+08  2.391100E+07
         3   6 -3.145163E+07 -2.912345E+06  5.989481E+06 -2.571000E+07  1.418317E+07 -5.320653E+07
         3   7  6.004184E+05 -4.018685E+06 -2.977807E+07 -3.834352E+07 -5.626075E+07  5.772496E+07
         3   8 -1.003086E+07 -9.415123E+06  1.657110E+07 -2.349398E+07  4.887914E+07 -2.317954E+07
         4   1  2.648407E+07 -5.036760E+05 -3.298690E+07 -3.366997E+07  2.473462E+07  2.656917E+07
         4   2 -1.976249E+07 -2.357024E+07 -2.850866E+07 -1.662502E+07  4.306702E+07 -1.735993E+07
         4   3  6.541873E+07  8.363274E+06 -7.265303E+06 -2.596313E+07  4.934251E+07  6.604268E+07
         4   4  1.848369E+07 -1.942304E+07 -1.326981E+07 -7.938379E+06  5.028120E+07  1.039244E+06
         4   5  1.580316E+08 -1.205587E+07  3.011696E+06  1.405159E+07  2.181317E+07  1.669565E+07
         4   6  9.221502E+07 -2.085867E+07  5.898064E+06  2.701663E+07  3.728219E+07 -2.511680E+07
         4   7  2.309431E+08  3.401031E+07  5.008612E+07  3.593015E+07  4.843171E+07  5.828458E+07
         4   8  1.689781E+08  2.537527E+07  4.531800E+07  5.175911E+07  4.677964E+07 -4.327312E+06
         5   1 -1.833458E+07 -3.765093E+07  1.084945E+08  5.113129E+07 -1.249684E+08 -7.914629E+06
         5   2 -2.556017E+07  1.383994E+07  3.273850E+08  8.249550E+07 -2.495410E+08  1.065446E+08
         5   3 -1.042317E+08 -4.605600E+07  1.118022E+08  2.285703E+07 -1.882267E+08 -6.841441E+07
         5   4 -2.826938E+07  8.099282E+07  5.045988E+08  5.691490E+07 -2.704857E+08  6.780124E+07
         5   5 -1.631894E+08 -1.523574E+07  7.176256E+07  1.361673E+07 -1.892327E+08 -5.830929E+07
         5   6 -2.279599E+08  1.359938E+07  2.665929E+08  5.640705E+07 -3.477712E+08  8.125783E+07
         5   7 -3.064859E+08 -5.097587E+07  4.964992E+07 -3.243747E+07 -2.849297E+08 -1.530395E+08
         5   8 -2.823929E+08  5.611197E+07  4.208975E+08  1.475457E+07 -3.979447E+08  1.156716E+07
         6   1  5.024091E+06 -5.849694E+07  4.406275E+07  5.115550E+07 -3.104282E+08  4.159185E+07
         6   2 -4.262350E+07 -5.370733E+07  6.224058E+07  3.398892E+07 -3.305101E+08 -1.950767E+07
         6   3 -2.668189E+07 -5.396633E+07  1.241973E+08  7.259323E+07 -5.351164E+08  2.008132E+08
         6   4 -4.993386E+07 -2.993814E+07  1.864659E+08  5.705800E+07 -5.123749E+08  1.517869E+08
         6   5  2.673060E+07  9.710189E+06  7.103684E+07  1.370707E+07 -2.774678E+08  5.926413E+07
         6   6  2.707079E+07  2.410088E+07  1.064913E+08  9.107304E+06 -2.902701E+08  5.846178E+06
         6   7  5.552194E+07  4.821109E+07  1.795117E+08  1.945130E+07 -4.945338E+08  2.128511E+08
         6   8  7.549157E+07  8.084940E+07  2.573298E+08  1.528865E+07 -4.652331E+08  1.707696E+08
         7   1 -2.673060E+07 -9.710189E+06 -7.103684E+07 -1.370707E+07 -2.774678E+08  5.926413E+07
         7   2 -2.707079E+07 -2.410089E+07 -1.064913E+08 -9.107304E+06 -2.902701E+08  5.846178E+06
         7   3 -5.552194E+07 -4.821109E+07 -1.795117E+08 -1.945130E+07 -4.945338E+08  2.128511E+08
         7   4 -7.549157E+07 -8.084940E+07 -2.573298E+08 -1.528865E+07 -4.652331E+08  1.707696E+08
         7   5 -5.024091E+06  5.849694E+07 -4.406275E+07 -5.115550E+07 -3.104282E+08  4.159185E+07
         7   6  4.262350E+07  5.370733E+07 -6.224058E+07 -3.398892E+07 -3.305101E+08 -1.950767E+07
         7   7  2.668189E+07  5.396633E+07 -1.241973E+08 -7.259323E+07 -5.351164E+08  2.008132E+08
         7   8  4.993386E+07  2.993814E+07 -1.864659E+08 -5.705800E+07 -5.123749E+08  1.517869E+08
         8   1  1.833458E+07  3.765093E+07 -1.084945E+08 -5.113129E+07 -1.249684E+08 -7.914629E+06
         8   2  1.042317E+08  4.605600E+07 -1.118022E+08 -2.285703E+07 -1.882267E+08 -6.841441E+07
         8   3  2.556017E+07 -1.383994E+07 -3.273850E+08 -8.249550E+07 -2.495410E+08  1.065446E+08
         8   4  2.826938E+07 -8.099282E+07 -5.045988E+08 -5.691490E+07 -2.704857E+08  6.780124E+07
         8   5  1.631894E+08  1.523574E+07 -7.176256E+07 -1.361673E+07 -1.892327E+08 -5.830929E+07
         8   6  3.064859E+08  5.097587E+07 -4.964992E+07  3.243747E+07 -2.849297E+08 -1.530395E+08
         8   7  2.279599E+08 -1.359938E+07 -2.665929E+08 -5.640705E+07 -3.477712E+08  8.125783E+07
         8   8  2.823929E+08 -5.611197E+07 -4.208975E+08 -1.475457E+07 -3.979447E+08  1.156716E+07
         9   1 -2.929783E+08 -3.339629E+07 -3.790701E+07  7.700063E+07 -7.101329E+07  6.422113E+07
         9   2 -1.534504E+08  2.195870E+07 -1.081811E+07  4.614833E+07  6.090183E+07 -2.670151E+07
         9   3 -1.757174E+08  2.349027E+07  5.547804E+07  1.072669E+08 -9.451408E+07  6.256067E+07
         9   4 -2.701541E+07  7.930994E+07  7.764301E+07  8.026777E+07  7.024713E+07 -6.358105E+05
         9   5 -5.569397E+08 -7.376833E+06 -1.092896E+08  4.287576E+07 -6.433026E+07  4.600477E+07
         9   6 -3.904577E+08  5.231424E+07 -7.281363E+07  1.059306E+07  6.631845E+07 -4.412791E+07
         9   7 -4.158996E+08  6.817588E+07 -3.170917E+06  8.212303E+07 -8.862733E+07  4.341646E+07
         9   8 -2.368566E+08  1.308721E+08  3.015928E+07  5.489108E+07  7.475150E+07 -1.910927E+07
        10   1 -1.722188E+08 -5.120315E+07 -4.978063E+07  7.057949E+07 -2.297433E+08  7.634544E+07
        10   2 -9.594887E+07 -2.107294E+07 -1.614199E+06  9.185718E+07 -2.711331E+08  9.512873E+07
        10   3 -7.143732E+07 -1.027747E+07 -3.457877E+07  4.665996E+07  1.586160E+07 -5.880552E+07
        10   4  1.157720E+07  1.997271E+07  1.032697E+07  7.063082E+07  2.315839E+07 -2.080367E+07
        10   5 -3.886228E+07 -6.436241E+06  3.656391E+06  1.891172E+07 -2.286485E+08  8.788984E+07
        10   6 -1.156437E+07  8.498579E+06  3.257261E+07  2.461306E+07 -2.691383E+08  1.077219E+08
        10   7 -2.339211E+07 -7.004380E+06 -1.918328E+07  1.250250E+07  1.838779E+07 -4.815402E+07
        10   8  3.466154E+06  5.715724E+06  3.616558E+06  1.892547E+07  2.671569E+07 -8.968679E+06
        11   1  3.886228E+07  6.436241E+06 -3.656391E+06 -1.891172E+07 -2.286485E+08  8.788984E+07
        11   2  1.156437E+07 -8.498579E+06 -3.257261E+07 -2.461306E+07 -2.691383E+08  1.077219E+08
        11   3  2.339211E+07  7.004380E+06  1.918328E+07 -1.250250E+07  1.838779E+07 -4.815402E+07
        11   4 -3.466154E+06 -5.715724E+06 -3.616558E+06 -1.892547E+07  2.671569E+07 -8.968679E+06
        11   5  1.722188E+08  5.120315E+07  4.978063E+07 -7.057949E+07 -2.297433E+08  7.634544E+07
        11   6  9.594887E+07  2.107294E+07  1.614199E+06 -9.185718E+07 -2.711331E+08  9.512873E+07
        11   7  7.143732E+07  1.027747E+07  3.457877E+07 -4.665996E+07  1.586160E+07 -5.880552E+07
        11   8 -1.157720E+07 -1.997271E+07 -1.032697E+07 -7.063082E+07  2.315839E+07 -2.080367E+07
        12   1  2.929783E+08  3.339629E+07  3.790701E+07 -7.700063E+07 -7.101329E+07  6.422113E+07
        12   2  1.757174E+08 -2.349027E+07 -5.547804E+07 -1.072669E+08 -9.451408E+07  6.256067E+07
        12   3  1.534504E+08 -2.195870E+07  1.081811E+07 -4.614833E+07  6.090183E+07 -2.670151E+07
        12   4  2.701541E+07 -7.930994E+07 -7.764301E+07 -8.026777E+07  7.024713E+07 -6.358106E+05
        12   5  5.569397E+08  7.376833E+06  1.092896E+08 -4.287576E+07 -6.433026E+07  4.600477E+07
        12   6  4.158996E+08 -6.817588E+07  3.170917E+06 -8.212303E+07 -8.862733E+07  4.341646E+07
        12   7  3.904577E+08 -5.231424E+07  7.281363E+07 -1.059306E+07  6.631845E+07 -4.412791E+07
        12   8  2.368566E+08 -1.308721E+08 -3.015928E+07 -5.489108E+07  7.475150E+07 -1.910927E+07
        13   1 -2.999291E+08 -8.674527E+07  1.812495E+07  1.155918E+08 -2.073045E+08  9.403451E+07
        13   2 -1.381810E+08 -1.415675E+07  1.441678E+08  1.572920E+08 -2.161214E+08  1.231630E+08
        13   3 -3.674124E+08 -6.865084E+07  1.744371E+08  1.496096E+08 -3.572822E+08  1.892771E+08
        13   4 -2.007567E+08  1.805267E+07  3.382620E+08  1.873837E+08 -4.070952E+08  1.969109E+08
        13   5 -5.613740E+08 -6.267339E+07 -5.308694E+07  9.539707E+07 -2.317502E+08  3.266599E+07
        13   6 -3.674453E+08  1.722834E+07  8.480406E+07  1.471218E+08 -2.473227E+08  5.385147E+07
        13   7 -6.727016E+08 -6.740019E+07  8.322552E+07  1.391134E+08 -3.738054E+08  1.229666E+08
        13   8 -4.772551E+08  2.578014E+07  2.576307E+08  1.859761E+08 -4.296689E+08  1.234131E+08
        14   1 -1.895402E+08 -1.038290E+08 -3.156938E+07  9.699412E+07 -4.365038E+08  1.657517E+08
        14   2 -2.619470E+08 -1.148117E+08  2.318741E+07  1.210233E+08 -7.128818E+08  3.231881E+08
        14   3 -8.449508E+07 -6.192319E+07  3.354302E+07  1.269882E+08 -4.733955E+08  2.222608E+08
        14   4 -1.621812E+08 -7.166062E+07  9.483069E+07  1.481912E+08 -8.097008E+08  3.605112E+08
        14   5 -2.694986E+07 -3.983617E+06  4.716134E+07  2.598950E+07 -4.234956E+08  1.933535E+08
        14   6 -1.265985E+07  2.676495E+07  1.404465E+08  3.242810E+07 -7.016087E+08  3.518721E+08
        14   7  1.007743E+07  1.612554E+07  8.532939E+07  3.402638E+07 -4.589080E+08  2.516021E+08
        14   8  2.622220E+07  5.047712E+07  1.879930E+08  3.970771E+07 -7.971027E+08  3.907692E+08
        15   1  2.694986E+07  3.983617E+06 -4.716134E+07 -2.598950E+07 -4.234956E+08  1.933535E+08
        15   2  1.265985E+07 -2.676495E+07 -1.404465E+08 -3.242810E+07 -7.016087E+08  3.518721E+08
        15   3 -1.007743E+07 -1.612554E+07 -8.532939E+07 -3.402638E+07 -4.589080E+08  2.516021E+08
        15   4 -2.622220E+07 -5.047712E+07 -1.879930E+08 -3.970771E+07 -7.971027E+08  3.907692E+08
        15   5  1.895402E+08  1.038290E+08  3.156938E+07 -9.699412E+07 -4.365038E+08  1.657517E+08
        15   6  2.619470E+08  1.148117E+08 -2.318741E+07 -1.210233E+08 -7.128818E+08  3.231881E+08
        15   7  8.449508E+07  6.192319E+07 -3.354302E+07 -1.269882E+08 -4.733955E+08  2.222608E+08
        15   8  1.621812E+08  7.166062E+07 -9.483069E+07 -1.481912E+08 -8.097008E+08  3.605112E+08
        16   1  2.999291E+08  8.674527E+07 -1.812495E+07 -1.155918E+08 -2.073045E+08  9.403451E+07
        16   2  3.674124E+08  6.865084E+07 -1.744371E+08 -1.496096E+08 -3.572822E+08  1.892771E+08
        16   3  1.381810E+08  1.415675E+07 -1.441678E+08 -1.572920E+08 -2.161214E+08  1.231630E+08
        16   4  2.007567E+08 -1.805267E+07 -3.382620E+08 -1.873837E+08 -4.070952E+08  1.969109E+08
        16   5  5.613740E+08  6.267339E+07  5.308694E+07 -9.539707E+07 -2.317502E+08  3.266599E+07
        16   6  6.727016E+08  6.740019E+07 -8.322552E+07 -1.391134E+08 -3.738054E+08  1.229666E+08
        16   7  3.674453E+08 -1.722834E+07 -8.480406E+07 -1.471218E+08 -2.473227E+08  5.385147E+07
        16   8  4.772551E+08 -2.578014E+07 -2.576307E+08 -1.859761E+08 -4.296689E+08  1.234131E+08
        17   1 -5.717082E+08 -9.995730E+07 -5.808347E+07  1.735005E+08 -1.261161E+08  6.217012E+07
        17   2 -3.540638E+08 -2.273844E+07 -1.564709E+07  1.466919E+08  8.615893E+07  1.206051E+07
        17   3 -3.999789E+08 -3.336991E+05  9.766532E+07  2.211986E+08 -1.985852E+08  6.803421E+07
        17   4 -1.679470E+08  7.967403E+07  1.344074E+08  2.006541E+08  6.000426E+07  4.851742E+07
        17   5 -9.827393E+08 -1.087958E+08 -1.840444E+08  1.692693E+08 -1.072748E+08  3.650729E+07
        17   6 -7.133213E+08 -1.265610E+07 -1.203996E+08  1.393255E+08  1.039135E+08 -1.317333E+07
        17   7 -7.800765E+08  9.685253E+06 -1.335826E+07  2.288220E+08 -1.803126E+08  4.163619E+07
        17   8 -4.913947E+08  1.114377E+08  4.690217E+07  2.067407E+08  7.709879E+07  2.245203E+07
        18   1 -3.695917E+08 -1.136365E+08 -9.660683E+07  1.380570E+08 -3.262039E+08  1.107601E+08
        18   2 -2.628455E+08 -6.027213E+07 -2.419642E+07  1.722532E+08 -4.277397E+08  1.324077E+08
        18   3 -2.122493E+08 -5.756051E+07 -6.777341E+07  1.178187E+08  2.807842E+07  3.767745E+06
        18   4 -9.159665E+07  1.155241E+06  8.735628E+06  1.564938E+08 -6.524894E+06  5.214351E+07
        18   5 -7.860689E+07 -1.002391E+07  2.177239E+07  3.699227E+07 -3.276643E+08  1.252730E+08
        18   6 -3.970892E+07  1.457044E+07  6.519732E+07  4.615510E+07 -4.294102E+08  1.466491E+08
        18   7 -5.131005E+07 -9.861308E+06 -5.181868E+06  3.156944E+07  2.621662E+07  1.843912E+07
        18   8 -9.394843E+06  1.545795E+07  3.768698E+07  4.193240E+07 -8.630455E+06  6.650777E+07
        19   1  7.860689E+07  1.002391E+07 -2.177239E+07 -3.699227E+07 -3.276643E+08  1.252730E+08
        19   2  3.970892E+07 -1.457044E+07 -6.519732E+07 -4.615510E+07 -4.294102E+08  1.466491E+08
        19   3  5.131005E+07  9.861308E+06  5.181868E+06 -3.156944E+07  2.621662E+07  1.843912E+07
        19   4  9.394843E+06 -1.545795E+07 -3.768698E+07 -4.193240E+07 -8.630455E+06  6.650777E+07
        19   5  3.695917E+08  1.136365E+08  9.660683E+07 -1.380570E+08 -3.262039E+08  1.107601E+08
        19   6  2.628455E+08  6.027213E+07  2.419642E+07 -1.722532E+08 -4.277397E+08  1.324077E+08
        19   7  2.122493E+08  5.756051E+07  6.777341E+07 -1.178187E+08  2.807842E+07  3.767745E+06
        19   8  9.159665E+07 -1.155240E+06 -8.735628E+06 -1.564938E+08 -6.524894E+06  5.214351E+07
        20   1  5.717082E+08  9.995730E+07  5.808347E+07 -1.735005E+08 -1.261161E+08  6.217012E+07
        20   2  3.999789E+08  3.336990E+05 -9.766532E+07 -2.211986E+08 -1.985852E+08  6.803421E+07
        20   3  3.540638E+08  2.273844E+07  1.564709E+07 -1.466919E+08  8.615893E+07  1.206051E+07
        20   4  1.679470E+08 -7.967403E+07 -1.344074E+08 -2.006541E+08  6.000426E+07  4.851742E+07
        20   5  9.827393E+08  1.087958E+08  1.840444E+08 -1.692693E+08 -1.072748E+08  3.650729E+07
        20   6  7.800765E+08 -9.685253E+06  1.335826E+07 -2.288220E+08 -1.803126E+08  4.163619E+07
        20   7  7.133213E+08  1.265610E+07  1.203996E+08 -1.393255E+08  1.039135E+08 -1.317333E+07
        20   8  4.913947E+08 -1.114377E+08 -4.690217E+07 -2.067407E+08  7.709879E+07  2.245203E+07
        21   1 -5.533719E+08 -1.442262E+08  3.012367E+07  2.366780E+08 -2.567136E+08  1.609961E+08
        21   2 -3.454039E+08 -2.848134E+07  2.068249E+08  2.974767E+08 -3.102197E+08  2.154466E+08
        21   3 -6.567377E+08 -1.170847E+08  2.234748E+08  2.622718E+08 -5.143199E+08  2.286967E+08
        21   4 -4.649461E+08 -7.161606E+06  3.970574E+08  3.171982E+08 -6.211358E+08  2.492735E+08
        21   5 -9.575234E+08 -1.711585E+08 -9.920151E+07  2.498735E+08 -2.776943E+08  8.365312E+07
        21   6 -7.064933E+08 -2.887493E+07  9.837996E+07  3.273852E+08 -3.304363E+08  1.391064E+08
        21   7 -1.113818E+09 -1.632734E+08  7.249409E+07  2.786007E+08 -5.363777E+08  1.517788E+08
        21   8 -8.837310E+08 -2.963490E+07  2.646800E+08  3.485924E+08 -6.425153E+08  1.732616E+08
        22   1 -3.739338E+08 -1.601445E+08 -6.530973E+07  1.828528E+08 -5.470214E+08  2.796780E+08
        22   2 -4.854855E+08 -1.784888E+08 -1.228786E+07  2.021335E+08 -9.621117E+08  4.130214E+08
        22   3 -2.431923E+08 -9.736730E+07  1.938007E+07  2.259786E+08 -6.466274E+08  3.531501E+08
        22   4 -3.651209E+08 -1.184829E+08  7.294487E+07  2.411035E+08 -1.140401E+09  4.583128E+08
        22   5 -6.010966E+07 -2.825004E+06  7.603335E+07  4.899527E+07 -5.354464E+08  3.115382E+08
        22   6 -5.114879E+07  3.111073E+07  1.808930E+08  5.416152E+07 -9.513341E+08  4.451964E+08
        22   7 -1.382898E+07  2.524470E+07  1.249727E+08  6.055079E+07 -6.344868E+08  3.857526E+08
        22   8 -5.753396E+06  6.033305E+07  2.343999E+08  6.460350E+07 -1.129121E+09  4.911584E+08
        23   1  6.010966E+07  2.825004E+06 -7.603335E+07 -4.899527E+07 -5.354464E+08  3.115382E+08
        23   2  5.114879E+07 -3.111073E+07 -1.808930E+08 -5.416152E+07 -9.513341E+08  4.451964E+08
        23   3  1.382898E+07 -2.524470E+07 -1.249727E+08 -6.055079E+07 -6.344868E+08  3.857526E+08
        23   4  5.753395E+06 -6.033305E+07 -2.343999E+08 -6.460350E+07 -1.129121E+09  4.911584E+08
        23   5  3.739338E+08  1.601445E+08  6.530973E+07 -1.828528E+08 -5.470214E+08  2.796780E+08
        23   6  4.854855E+08  1.784888E+08  1.228786E+07 -2.021335E+08 -9.621117E+08  4.130214E+08
        23   7  2.431923E+08  9.736730E+07 -1.938007E+07 -2.259786E+08 -6.466274E+08  3.531501E+08
        23   8  3.651209E+08  1.184829E+08 -7.294487E+07 -2.411035E+08 -1.140401E+09  4.583128E+08
        24   1  5.533719E+08  1.442262E+08 -3.012367E+07 -2.366780E+08 -2.567136E+08  1.609961E+08
        24   2  6.567377E+08  1.170847E+08 -2.234748E+08 -2.622718E+08 -5.143199E+08  2.286967E+08
        24   3  3.454039E+08  2.848134E+07 -2.068249E+08 -2.974767E+08 -3.102197E+08  2.154466E+08
        24   4  4.649461E+08  7.161606E+06 -3.970574E+08 -3.171982E+08 -6.211358E+08  2.492735E+08
        24   5  9.575234E+08  1.711585E+08  9.920151E+07 -2.498735E+08 -2.776943E+08  8.365312E+07
        24   6  1.113818E+09  1.632734E+08 -7.249409E+07 -2.786007E+08 -5.363777E+08  1.517788E+08
        24   7  7.064933E+08  2.887493E+07 -9.837996E+07 -3.273852E+08 -3.304363E+08  1.391064E+08
        24   8  8.837310E+08  2.963490E+07 -2.646800E+08 -3.485924E+08 -6.425153E+08  1.732616E+08
        25   1 -9.190977E+08 -1.941516E+08 -5.410130E+07  3.062182E+08 -1.766762E+08  4.826018E+07
        25   2 -6.324232E+08 -9.849257E+07 -4.178806E+06  2.967997E+08  1.085908E+08  5.457997E+07
        25   3 -7.095798E+08 -5.489027E+07  1.458892E+08  3.701909E+08 -3.234729E+08  5.728038E+07
        25   4 -4.016349E+08  4.882090E+07  1.938513E+08  3.697676E+08  2.407591E+07  9.510133E+07
        25   5 -1.532088E+09 -2.815676E+08 -2.642233E+08  3.462531E+08 -1.490235E+08  1.925613E+07
        25   6 -1.150847E+09 -1.475599E+08 -1.744263E+08  3.348734E+08  1.362833E+08  2.556770E+07
        25   7 -1.276604E+09 -1.158832E+08 -4.251592E+07  4.292958E+08 -2.958026E+08  2.830170E+07
        25   8 -8.659488E+08  3.059255E+07  4.908862E+07  4.296069E+08  5.178926E+07  6.611791E+07
        26   1 -6.215292E+08 -2.015026E+08 -1.537793E+08  2.299496E+08 -4.354058E+08  1.227599E+08
        26   2 -4.948680E+08 -1.246093E+08 -6.137987E+07  2.748982E+08 -6.208238E+08  1.404511E+08
        26   3 -4.153338E+08 -1.297276E+08 -1.086476E+08  2.230876E+08  2.619768E+07  6.731034E+07
        26   4 -2.705737E+08 -4.408431E+07 -1.030873E+07  2.743524E+08 -7.871041E+07  1.172350E+08
        26   5 -1.272059E+08 -1.466010E+07  5.057045E+07  6.161481E+07 -4.407813E+08  1.376257E+08
        26   6 -8.003402E+07  1.917650E+07  1.062061E+08  7.365875E+07 -6.264661E+08  1.549334E+08
        26   7 -8.811439E+07 -1.158645E+07  2.496053E+07  5.977614E+07  2.022040E+07  8.230060E+07
        26   8 -3.698625E+07  2.370141E+07  8.010323E+07  7.351250E+07 -8.500261E+07  1.317888E+08
        27   1  1.272059E+08  1.466010E+07 -5.057045E+07 -6.161481E+07 -4.407813E+08  1.376257E+08
        27   2  8.003402E+07 -1.917650E+07 -1.062061E+08 -7.365875E+07 -6.264661E+08  1.549334E+08
        27   3  8.811439E+07  1.158645E+07 -2.496053E+07 -5.977614E+07  2.022040E+07  8.230060E+07
        27   4  3.698625E+07 -2.370141E+07 -8.010323E+07 -7.351250E+07 -8.500261E+07  1.317888E+08
        27   5  6.215292E+08  2.015026E+08  1.537793E+08 -2.299496E+08 -4.354058E+08  1.227599E+08
        27   6  4.948680E+08  1.246093E+08  6.137987E+07 -2.748982E+08 -6.208238E+08  1.404511E+08
        27   7  4.153338E+08  1.297276E+08  1.086476E+08 -2.230876E+08  2.619768E+07  6.731034E+07
        27   8  2.705737E+08  4.408431E+07  1.030873E+07 -2.743524E+08 -7.871041E+07  1.172350E+08
        28   1  9.190977E+08  1.941516E+08  5.410130E+07 -3.062182E+08 -1.766762E+08  4.826018E+07
        28   2  7.095798E+08  5.489027E+07 -1.458892E+08 -3.701909E+08 -3.234729E+08  5.728038E+07
        28   3  6.324232E+08  9.849257E+07  4.178805E+06 -2.967997E+08  1.085908E+08  5.457997E+07
        28   4  4.016348E+08 -4.882090E+07 -1.938513E+08 -3.697676E+08  2.407591E+07  9.510133E+07
        28   5  1.532088E+09  2.815676E+08  2.642233E+08 -3.462531E+08 -1.490235E+08  1.925613E+07
        28   6  1.276604E+09  1.158832E+08  4.251592E+07 -4.292958E+08 -2.958026E+08  2.830170E+07
        28   7  1.150847E+09  1.475599E+08  1.744263E+08 -3.348734E+08  1.362833E+08  2.556770E+07
        28   8  8.659488E+08 -3.059255E+07 -4.908862E+07 -4.296069E+08  5.178926E+07  6.611791E+07
        29   1 -8.754639E+08 -2.168555E+08  5.744018E+07  3.866897E+08 -2.800633E+08  2.284486E+08
        29   2 -6.472814E+08 -5.343263E+07  2.760476E+08  4.585965E+08 -4.293581E+08  2.800606E+08
        29   3 -9.972209E+08 -1.880343E+08  2.523644E+08  3.889198E+08 -6.156711E+08  2.317787E+08
        29   4 -7.866051E+08 -3.372176E+07  4.679726E+08  4.534573E+08 -8.358905E+08  2.476427E+08
        29   5 -1.488609E+09 -3.194590E+08 -1.572844E+08  4.552865E+08 -2.871619E+08  1.498146E+08
        29   6 -1.197487E+09 -1.160207E+08  9.220947E+07  5.538594E+08 -4.356931E+08  2.025492E+08
        29   7 -1.702051E+09 -3.268822E+08 -7.391141E+05  4.578623E+08 -6.240397E+08  1.534071E+08
        29   8 -1.436063E+09 -1.371022E+08  2.421211E+08  5.463273E+08 -8.435891E+08  1.702814E+08
        30   1 -6.060538E+08 -2.340064E+08 -1.087722E+08  2.851703E+08 -6.579597E+08  3.773926E+08
        30   2 -7.200720E+08 -2.452718E+08 -4.769843E+07  2.868294E+08 -1.190128E+09  4.535942E+08
        30   3 -4.714397E+08 -1.438490E+08 -8.695222E+06  3.341836E+08 -8.576941E+08  4.365758E+08
        30   4 -5.985563E+08 -1.624150E+08  4.772951E+07  3.308213E+08 -1.474104E+09  4.758395E+08
        30   5 -1.018936E+08 -2.203818E+06  1.120166E+08  7.641115E+07 -6.499366E+08  4.112035E+08
        30   6 -9.077740E+07  3.644493E+07  2.256050E+08  7.685571E+07 -1.181769E+09  4.873357E+08
        30   7 -5.203644E+07  3.574122E+07  1.710028E+08  8.954423E+07 -8.498728E+08  4.700900E+08
        30   8 -4.380885E+07  7.305488E+07  2.847947E+08  8.864329E+07 -1.465923E+09  5.093140E+08
        31   1  1.018936E+08  2.203818E+06 -1.120166E+08 -7.641115E+07 -6.499366E+08  4.112035E+08
        31   2  9.077740E+07 -3.644493E+07 -2.256050E+08 -7.685571E+07 -1.181769E+09  4.873357E+08
        31   3  5.203644E+07 -3.574122E+07 -1.710028E+08 -8.954423E+07 -8.498728E+08  4.700900E+08
        31   4  4.380885E+07 -7.305488E+07 -2.847947E+08 -8.864329E+07 -1.465923E+09  5.093140E+08
        31   5  6.060538E+08  2.340064E+08  1.087722E+08 -2.851703E+08 -6.579597E+08  3.773926E+08
        31   6  7.200720E+08  2.452718E+08  4.769843E+07 -2.868294E+08 -1.190128E+09  4.535942E+08
        31   7  4.714397E+08  1.438490E+08  8.695222E+06 -3.341836E+08 -8.576941E+08  4.365758E+08
        31   8  5.985563E+08  1.624150E+08 -4.772951E+07 -3.308213E+08 -1.474104E+09  4.758395E+08
        32   1  8.754639E+08  2.168555E+08 -5.744018E+07 -3.866897E+08 -2.800633E+08  2.284486E+08
        32   2  9.972209E+08  1.880343E+08 -2.523644E+08 -3.889198E+08 -6.156711E+08  2.317787E+08
        32   3  6.472814E+08  5.343262E+07 -2.760476E+08 -4.585965E+08 -4.293581E+08  2.800606E+08
        32   4  7.866051E+08  3.372176E+07 -4.679726E+08 -4.534573E+08 -8.358905E+08  2.476427E+08
        32   5  1.488609E+09  3.194590E+08  1.572844E+08 -4.552865E+08 -2.871619E+08  1.498146E+08
        32   6  1.702051E+09  3.268822E+08  7.391158E+05 -4.578623E+08 -6.240397E+08  1.534071E+08
        32   7  1.197487E+09  1.160207E+08 -9.220947E+07 -5.538594E+08 -4.356931E+08  2.025492E+08
        32   8  1.436063E+09  1.371022E+08 -2.421211E+08 -5.463273E+08 -8.435891E+08  1.702814E+08
        33   1 -1.351231E+09 -2.923759E+08 -3.958658E+07  4.680719E+08 -2.094780E+08  3.921008E+07
        33   2 -1.007987E+09 -1.755258E+08  1.359012E+07  4.815798E+08  1.177987E+08  1.027726E+08
        33   3 -1.116578E+09 -1.206951E+08  2.007811E+08  5.436467E+08 -4.617152E+08  3.517093E+07
        33   4 -7.484571E+08  6.727160E+06  2.498960E+08  5.687707E+08 -5.774972E+07  1.225570E+08
        33   5 -2.209172E+09 -4.794746E+08 -3.530986E+08  5.761269E+08 -1.706605E+08  9.248403E+06
        33   6 -1.714603E+09 -2.980765E+08 -2.351600E+08  5.902194E+08  1.560216E+08  7.283675E+07
        33   7 -1.914706E+09 -2.778634E+08 -8.580763E+07  6.790493E+08 -4.231236E+08  4.846373E+06
        33   8 -1.383042E+09 -8.001988E+07  3.349635E+07  7.088688E+08 -1.979949E+07  9.220447E+07
        34   1 -9.375749E+08 -2.961380E+08 -2.196891E+08  3.379638E+08 -5.433529E+08  1.242988E+08
        34   2 -8.008371E+08 -2.004379E+08 -1.103629E+08  3.896732E+08 -8.411974E+08  1.156397E+08
        34   3 -6.966476E+08 -2.087115E+08 -1.640045E+08  3.484484E+08 -1.030457E+07  1.296586E+08
        34   4 -5.397663E+08 -1.023184E+08 -4.999724E+07  4.081325E+08 -2.205118E+08  1.519479E+08
        34   5 -1.876925E+08 -1.582001E+07  8.937099E+07  9.055713E+07 -5.534048E+08  1.390053E+08
        34   6 -1.343313E+08  2.654512E+07  1.576837E+08  1.044126E+08 -8.511896E+08  1.304421E+08
        34   7 -1.412213E+08 -1.047926E+07  6.209302E+07  9.336648E+07 -2.019925E+07  1.443582E+08
        34   8 -8.439279E+07  3.282102E+07  1.271566E+08  1.093588E+08 -2.303344E+08  1.667577E+08
        35   1  1.876925E+08  1.582001E+07 -8.937099E+07 -9.055713E+07 -5.534048E+08  1.390053E+08
        35   2  1.343313E+08 -2.654512E+07 -1.576837E+08 -1.044126E+08 -8.511896E+08  1.304421E+08
        35   3  1.412213E+08  1.047926E+07 -6.209302E+07 -9.336648E+07 -2.019926E+07  1.443582E+08
        35   4  8.439279E+07 -3.282102E+07 -1.271566E+08 -1.093588E+08 -2.303344E+08  1.667577E+08
        35   5  9.375748E+08  2.961380E+08  2.196891E+08 -3.379638E+08 -5.433529E+08  1.242988E+08
        35   6  8.008371E+08  2.004379E+08  1.103629E+08 -3.896732E+08 -8.411974E+08  1.156397E+08
        35   7  6.966476E+08  2.087115E+08  1.640045E+08 -3.484484E+08 -1.030457E+07  1.296586E+08
        35   8  5.397663E+08  1.023184E+08  4.999724E+07 -4.081325E+08 -2.205118E+08  1.519479E+08
        36   1  1.351231E+09  2.923759E+08  3.958658E+07 -4.680719E+08 -2.094780E+08  3.921008E+07
        36   2  1.116578E+09  1.206951E+08 -2.007811E+08 -5.436467E+08 -4.617152E+08  3.517093E+07
        36   3  1.007987E+09  1.755258E+08 -1.359012E+07 -4.815798E+08  1.177987E+08  1.027726E+08
        36   4  7.484571E+08 -6.727160E+06 -2.498960E+08 -5.687707E+08 -5.774972E+07  1.225570E+08
        36   5  2.209172E+09  4.794746E+08  3.530986E+08 -5.761269E+08 -1.706605E+08  9.248403E+06
        36   6  1.914706E+09  2.778634E+08  8.580763E+07 -6.790493E+08 -4.231236E+08  4.846373E+06
        36   7  1.714603E+09  2.980765E+08  2.351600E+08 -5.902194E+08  1.560216E+08  7.283675E+07
        36   8  1.383042E+09  8.001988E+07 -3.349635E+07 -7.088688E+08 -1.979949E+07  9.220447E+07
        37   1 -1.295447E+09 -2.779227E+08  9.622278E+07  5.523466E+08 -2.868866E+08  2.771288E+08
        37   2 -1.079285E+09 -8.941317E+07  3.404501E+08  6.190116E+08 -5.807017E+08  2.806239E+08
        37   3 -1.387263E+09 -2.390878E+08  3.089480E+08  5.324476E+08 -6.503697E+08  2.138500E+08
        37   4 -1.191573E+09 -6.611661E+07  5.395826E+08  5.917207E+08 -1.025549E+09  1.896956E+08
        37   5 -2.156946E+09 -4.686167E+08 -2.194352E+08  7.028314E+08 -2.786980E+08  2.005875E+08
        37   6 -1.867107E+09 -2.318238E+08  6.138039E+07  8.037178E+08 -5.698546E+08  2.084821E+08
        37   7 -2.374070E+09 -4.826361E+08 -6.015872E+07  6.776461E+08 -6.473321E+08  1.375324E+08
        37   8 -2.114448E+09 -2.673216E+08  2.023584E+08  7.674213E+08 -1.020214E+09  1.173130E+08
        38   1 -9.144463E+08 -3.055947E+08 -1.630451E+08  3.921807E+08 -7.586525E+08  4.325835E+08
        38   2 -9.965966E+08 -3.056200E+08 -8.697052E+07  3.780129E+08 -1.333654E+09  4.379009E+08
        38   3 -7.972776E+08 -2.029041E+08 -5.576028E+07  4.348790E+08 -1.101796E+09  4.241211E+08
        38   4 -8.913971E+08 -2.121063E+08  1.413282E+07  4.159551E+08 -1.753701E+09  3.948930E+08
        38   5 -1.593046E+08  3.836716E+06  1.563269E+08  1.050845E+08 -7.567366E+08  4.660669E+08
        38   6 -1.387758E+08  4.637077E+07  2.759729E+08  1.012883E+08 -1.330585E+09  4.713342E+08
        38   7 -1.104554E+08  4.880651E+07  2.257996E+08  1.165255E+08 -1.100475E+09  4.566198E+08
        38   8 -9.306522E+07  8.895020E+07  3.439493E+08  1.114548E+08 -1.751146E+09  4.274456E+08
        39   1  1.593046E+08 -3.836717E+06 -1.563269E+08 -1.050845E+08 -7.567366E+08  4.660669E+08
        39   2  1.387758E+08 -4.637077E+07 -2.759729E+08 -1.012883E+08 -1.330585E+09  4.713342E+08
        39   3  1.104554E+08 -4.880651E+07 -2.257996E+08 -1.165255E+08 -1.100475E+09  4.566198E+08
        39   4  9.306522E+07 -8.895020E+07 -3.439493E+08 -1.114548E+08 -1.751146E+09  4.274456E+08
        39   5  9.144463E+08  3.055947E+08  1.630451E+08 -3.921807E+08 -7.586525E+08  4.325835E+08
        39   6  9.965966E+08  3.056200E+08  8.697052E+07 -3.780129E+08 -1.333654E+09  4.379009E+08
        39   7  7.972776E+08  2.029041E+08  5.576028E+07 -4.348790E+08 -1.101796E+09  4.241211E+08
        39   8  8.913971E+08  2.121063E+08 -1.413282E+07 -4.159551E+08 -1.753701E+09  3.948930E+08
        40   1  1.295447E+09  2.779227E+08 -9.622278E+07 -5.523465E+08 -2.868866E+08  2.771288E+08
        40   2  1.387263E+09  2.390878E+08 -3.089480E+08 -5.324476E+08 -6.503697E+08  2.138500E+08
        40   3  1.079285E+09  8.941317E+07 -3.404501E+08 -6.190116E+08 -5.807017E+08  2.806239E+08
        40   4  1.191573E+09  6.611661E+07 -5.395826E+08 -5.917207E+08 -1.025549E+09  1.896956E+08
        40   5  2.156946E+09  4.686167E+08  2.194352E+08 -7.028314E+08 -2.786980E+08  2.005875E+08
        40   6  2.374070E+09  4.826361E+08  6.015872E+07 -6.776461E+08 -6.473321E+08  1.375324E+08
        40   7  1.867107E+09  2.318238E+08 -6.138039E+07 -8.037178E+08 -5.698546E+08  2.084821E+08
        40   8  2.114448E+09  2.673216E+08 -2.023584E+08 -7.674213E+08 -1.020214E+09  1.173130E+08
        41   1 -1.865217E+09 -3.713053E+08 -3.900221E+06  6.431354E+08 -2.178332E+08  5.336836E+07
        41   2 -1.511512E+09 -2.493341E+08  2.853129E+07  6.779953E+08  9.837980E+07  1.404903E+08
        41   3 -1.628135E+09 -1.851990E+08  2.643880E+08  7.204062E+08 -6.044180E+08  8.524820E+06
        41   4 -1.247134E+09 -5.015718E+07  2.943307E+08  7.684339E+08 -2.032596E+08  1.001899E+08
        41   5 -2.998753E+09 -6.601362E+08 -4.306105E+08  8.429048E+08 -1.675506E+08  2.399181E+07
        41   6 -2.435509E+09 -4.483877E+08 -3.083839E+08  8.839722E+08  1.497177E+08  1.112247E+08
        41   7 -2.693054E+09 -4.447662E+08 -1.329577E+08  9.555555E+08 -5.537894E+08 -2.022765E+07
        41   8 -2.086080E+09 -2.129280E+08 -6.184349E+06  1.015561E+09 -1.514929E+08  7.165017E+07
        42   1 -1.318846E+09 -3.844812E+08 -2.882758E+08  4.495564E+08 -6.391212E+08  1.222220E+08
        42   2 -1.187278E+09 -2.817557E+08 -1.682367E+08  5.002847E+08 -1.077202E+09  5.152857E+07
        42   3 -1.080067E+09 -2.938918E+08 -2.412293E+08  4.752577E+08 -1.027982E+08  1.656603E+08
        42   4 -9.293275E+08 -1.804970E+08 -1.196141E+08  5.347053E+08 -4.568194E+08  1.126445E+08
        42   5 -2.593199E+08 -8.957474E+06  1.422393E+08  1.204583E+08 -6.544261E+08  1.368844E+08
        42   6 -2.030547E+08  3.957945E+07  2.234310E+08  1.340509E+08 -1.092150E+09  6.683400E+07
        42   7 -2.172011E+08 -6.546009E+06  1.038343E+08  1.273449E+08 -1.170157E+08  1.804369E+08
        42   8 -1.589140E+08  4.173450E+07  1.781794E+08  1.432739E+08 -4.705951E+08  1.281692E+08
        43   1  2.593199E+08  8.957474E+06 -1.422393E+08 -1.204583E+08 -6.544261E+08  1.368844E+08
        43   2  2.030547E+08 -3.957945E+07 -2.234309E+08 -1.340509E+08 -1.092150E+09  6.683400E+07
        43   3  2.172011E+08  6.546009E+06 -1.038343E+08 -1.273449E+08 -1.170157E+08  1.804369E+08
        43   4  1.589140E+08 -4.173450E+07 -1.781794E+08 -1.432739E+08 -4.705951E+08  1.281692E+08
        43   5  1.318846E+09  3.844812E+08  2.882758E+08 -4.495564E+08 -6.391212E+08  1.222220E+08
        43   6  1.187278E+09  2.817557E+08  1.682367E+08 -5.002847E+08 -1.077202E+09  5.152857E+07
        43   7  1.080067E+09  2.938918E+08  2.412293E+08 -4.752577E+08 -1.027982E+08  1.656603E+08
        43   8  9.293275E+08  1.804970E+08  1.196141E+08 -5.347053E+08 -4.568194E+08  1.126445E+08
        44   1  1.865217E+09  3.713053E+08  3.900220E+06 -6.431354E+08 -2.178332E+08  5.336836E+07
        44   2  1.628135E+09  1.851990E+08 -2.643880E+08 -7.204062E+08 -6.044180E+08  8.524820E+06
        44   3  1.511512E+09  2.493341E+08 -2.853129E+07 -6.779953E+08  9.837979E+07  1.404903E+08
        44   4  1.247134E+09  5.015718E+07 -2.943307E+08 -7.684339E+08 -2.032596E+08  1.001899E+08
        44   5  2.998753E+09  6.601362E+08  4.306105E+08 -8.429048E+08 -1.675506E+08  2.399181E+07
        44   6  2.693054E+09  4.447662E+08  1.329577E+08 -9.555555E+08 -5.537894E+08 -2.022765E+07
        44   7  2.435509E+09  4.483877E+08  3.083839E+08 -8.839722E+08  1.497177E+08  1.112247E+08
        44   8  2.086080E+09  2.129280E+08  6.184349E+06 -1.015561E+09 -1.514929E+08  7.165017E+07
        45   1 -1.813220E+09 -3.189759E+08  1.473852E+08  7.015338E+08 -2.796651E+08  2.853198E+08
        45   2 -1.662918E+09 -1.553839E+08  3.809618E+08  7.339364E+08 -7.617232E+08  1.724630E+08
        45   3 -1.785182E+09 -2.419246E+08  3.964534E+08  6.764606E+08 -5.843117E+08  1.969980E+08
        45   4 -1.655866E+09 -9.988030E+07  5.974156E+08  7.048159E+08 -1.146881E+09  7.935288E+07
        45   5 -2.954670E+09 -5.896131E+08 -2.762407E+08  9.538234E+08 -2.547818E+08  2.195558E+08
        45   6 -2.731690E+09 -3.767736E+08 -6.086486E+06  1.023457E+09 -7.309688E+08  1.177105E+08
        45   7 -3.069375E+09 -5.760102E+08 -8.903010E+07  9.169316E+08 -5.725832E+08  1.298514E+08
        45   8 -2.878062E+09 -3.913392E+08  1.433193E+08  9.781825E+08 -1.130174E+09  2.197454E+07
        46   1 -1.298371E+09 -3.712797E+08 -2.230916E+08  4.804525E+08 -8.405537E+08  4.096881E+08
        46   2 -1.277080E+09 -3.342234E+08 -1.068667E+08  4.640896E+08 -1.335522E+09  3.778218E+08
        46   3 -1.235269E+09 -2.909322E+08 -1.298341E+08  4.952599E+08 -1.365310E+09  2.576669E+08
        46   4 -1.221924E+09 -2.634373E+08 -2.494953E+07  4.769566E+08 -1.909484E+09  2.128627E+08
        46   5 -2.305708E+08  1.784269E+07  2.139853E+08  1.287369E+08 -8.459050E+08  4.401563E+08
        46   6 -1.831724E+08  6.946528E+07  3.424122E+08  1.243524E+08 -1.336735E+09  4.087249E+08
        46   7 -1.924517E+08  6.058260E+07  2.884655E+08  1.327045E+08 -1.372508E+09  2.846712E+08
        46   8 -1.497538E+08  1.070720E+08  4.078544E+08  1.278001E+08 -1.912263E+09  2.406930E+08
        47   1  2.305708E+08 -1.784269E+07 -2.139853E+08 -1.287369E+08 -8.459050E+08  4.401563E+08
        47   2  1.831724E+08 -6.946528E+07 -3.424122E+08 -1.243524E+08 -1.336735E+09  4.087249E+08
        47   3  1.924517E+08 -6.058260E+07 -2.884655E+08 -1.327045E+08 -1.372508E+09  2.846712E+08
        47   4  1.497538E+08 -1.070720E+08 -4.078544E+08 -1.278001E+08 -1.912263E+09  2.406930E+08
        47   5  1.298371E+09  3.712797E+08  2.230916E+08 -4.804525E+08 -8.405537E+08  4.096881E+08
        47   6  1.277080E+09  3.342234E+08  1.068667E+08 -4.640896E+08 -1.335522E+09  3.778218E+08
        47   7  1.235269E+09  2.909322E+08  1.298341E+08 -4.952599E+08 -1.365310E+09  2.576669E+08
        47   8  1.221924E+09  2.634373E+08  2.494954E+07 -4.769566E+08 -1.909484E+09  2.128627E+08
        48   1  1.813220E+09  3.189759E+08 -1.473852E+08 -7.015338E+08 -2.796651E+08  2.853198E+08
        48   2  1.785182E+09  2.419246E+08 -3.964534E+08 -6.764606E+08 -5.843117E+08  1.969980E+08
        48   3  1.662918E+09  1.553839E+08 -3.809618E+08 -7.339364E+08 -7.617232E+08  1.724630E+08
        48   4  1.655866E+09  9.988030E+07 -5.974156E+08 -7.048159E+08 -1.146881E+09  7.935288E+07
        48   5  2.954670E+09  5.896131E+08  2.762407E+08 -9.538234E+08 -2.547818E+08  2.195558E+08
        48   6  3.069375E+09  5.760102E+08  8.903010E+07 -9.169316E+08 -5.725832E+08  1.298514E+08
        48   7  2.731690E+09  3.767736E+08  6.086487E+06 -1.023457E+09 -7.309688E+08  1.177105E+08
        48   8  2.878062E+09  3.913392E+08 -1.433193E+08 -9.781825E+08 -1.130174E+09  2.197454E+07
        49   1 -2.423754E+09 -4.033308E+08  6.945733E+07  8.101864E+08 -1.916064E+08  1.100319E+08
        49   2 -2.185130E+09 -3.321887E+08  3.229437E+07  8.485291E+08  3.368160E+07  1.415628E+08
        49   3 -2.231422E+09 -2.414245E+08  3.327220E+08  8.658183E+08 -7.372501E+08 -1.686482E+07
        49   4 -1.965470E+09 -1.534060E+08  3.091519E+08  9.147725E+08 -4.302591E+08 -1.613537E+07
        49   5 -3.852709E+09 -7.736556E+08 -4.703265E+08  1.121659E+09 -1.315220E+08  8.563283E+07
        49   6 -3.360803E+09 -5.953872E+08 -3.993670E+08  1.175809E+09  1.052839E+08  1.199940E+08
        49   7 -3.590096E+09 -5.849829E+08 -1.779479E+08  1.218749E+09 -6.738994E+08 -3.459351E+07
        49   8 -3.050957E+09 -3.819189E+08 -8.504825E+07  1.291013E+09 -3.544733E+08 -2.981758E+07
        50   1 -1.736534E+09 -4.486761E+08 -3.435249E+08  5.490595E+08 -7.071544E+08  1.223745E+08
        50   2 -1.642908E+09 -3.664856E+08 -2.324390E+08  5.809671E+08 -1.305157E+09 -5.972089E+07
        50   3 -1.599121E+09 -4.011602E+08 -3.519372E+08  5.747362E+08 -2.754342E+08  1.327921E+08
        50   4 -1.493071E+09 -3.113291E+08 -2.404348E+08  6.128470E+08 -8.140367E+08 -6.495256E+07
        50   5 -3.335176E+08  1.156280E+07  2.154516E+08  1.471200E+08 -7.268774E+08  1.367618E+08
        50   6 -2.837911E+08  5.822530E+07  3.027094E+08  1.556697E+08 -1.325037E+09 -4.565519E+07
        50   7 -3.236814E+08 -2.688884E+06  1.502359E+08  1.540001E+08 -2.957126E+08  1.470430E+08
        50   8 -2.729922E+08  4.365461E+07  2.320840E+08  1.642119E+08 -8.345168E+08 -5.108198E+07
        51   1  3.335176E+08 -1.156280E+07 -2.154516E+08 -1.471200E+08 -7.268774E+08  1.367618E+08
        51   2  2.837911E+08 -5.822530E+07 -3.027094E+08 -1.556697E+08 -1.325037E+09 -4.565519E+07
        51   3  3.236814E+08  2.688884E+06 -1.502359E+08 -1.540001E+08 -2.957126E+08  1.470430E+08
        51   4  2.729922E+08 -4.365461E+07 -2.320840E+08 -1.642119E+08 -8.345168E+08 -5.108198E+07
        51   5  1.736534E+09  4.486761E+08  3.435249E+08 -5.490595E+08 -7.071544E+08  1.223745E+08
        51   6  1.642908E+09  3.664856E+08  2.324390E+08 -5.809671E+08 -1.305157E+09 -5.972089E+07
        51   7  1.599121E+09  4.011602E+08  3.519372E+08 -5.747362E+08 -2.754342E+08  1.327921E+08
        51   8  1.493071E+09  3.113291E+08  2.404348E+08 -6.128470E+08 -8.140367E+08 -6.495256E+07
        52   1  2.423754E+09  4.033308E+08 -6.945733E+07 -8.101864E+08 -1.916064E+08  1.100319E+08
        52   2  2.231422E+09  2.414245E+08 -3.327220E+08 -8.658183E+08 -7.372501E+08 -1.686482E+07
        52   3  2.185130E+09  3.321887E+08 -3.229437E+07 -8.485291E+08  3.368160E+07  1.415628E+08
        52   4  1.965470E+09  1.534060E+08 -3.091519E+08 -9.147725E+08 -4.302591E+08 -1.613537E+07
        52   5  3.852709E+09  7.736556E+08  4.703265E+08 -1.121659E+09 -1.315220E+08  8.563283E+07
        52   6  3.590096E+09  5.849829E+08  1.779479E+08 -1.218749E+09 -6.738994E+08 -3.459351E+07
        52   7  3.360803E+09  5.953872E+08  3.993670E+08 -1.175809E+09  1.052839E+08  1.199940E+08
        52   8  3.050957E+09  3.819189E+08  8.504825E+07 -1.291013E+09 -3.544733E+08 -2.981758E+07
        53   1 -2.388686E+09 -3.403376E+08  2.097596E+08  7.938085E+08 -2.527370E+08  2.239967E+08
        53   2 -2.372293E+09 -2.793960E+08  3.722598E+08  7.533184E+08 -9.489714E+08 -8.458136E+07
        53   3 -2.114075E+09 -1.680289E+08  5.166838E+08  8.028056E+08 -3.901602E+08  2.066893E+08
        53   4 -2.114188E+09 -1.309630E+08  6.190623E+08  7.671899E+08 -1.147444E+09 -6.490168E+07
        53   5 -3.826341E+09 -6.604883E+08 -3.175819E+08  1.155997E+09 -2.142481E+08  1.814202E+08
        53   6 -3.756886E+09 -5.594306E+08 -1.271284E+08  1.145280E+09 -9.004784E+08 -1.056910E+08
        53   7 -3.667958E+09 -5.431329E+08 -6.201238E+07  1.149701E+09 -3.775194E+08  1.577613E+08
        53   8 -3.623665E+09 -4.717799E+08  6.397411E+07  1.140085E+09 -1.126517E+09 -9.498142E+07
        54   1 -1.725726E+09 -4.328396E+08 -2.816386E+08  5.215024E+08 -8.827998E+08  2.689088E+08
        54   2 -1.506156E+09 -3.116420E+08 -9.606074E+07  5.330129E+08 -1.138375E+09  2.978603E+08
        54   3 -1.760727E+09 -4.289688E+08 -2.376424E+08  4.809741E+08 -1.604033E+09 -1.097685E+08
        54   4 -1.540955E+09 -3.141981E+08 -7.321177E+07  4.974180E+08 -1.856499E+09 -4.472312E+07
        54   5 -3.078606E+08  3.856719E+07  2.851430E+08  1.397361E+08 -8.948166E+08  2.910469E+08
        54   6 -2.138262E+08  1.062427E+08  4.170035E+08  1.428204E+08 -1.140290E+09  3.224805E+08
        54   7 -2.947136E+08  6.212979E+07  3.494911E+08  1.288766E+08 -1.619959E+09 -9.601933E+07
        54   8 -2.087678E+08  1.199408E+08  4.566862E+08  1.332828E+08 -1.861653E+09 -2.746856E+07
        55   1  3.078606E+08 -3.856719E+07 -2.851430E+08 -1.397361E+08 -8.948166E+08  2.910469E+08
        55   2  2.138262E+08 -1.062427E+08 -4.170035E+08 -1.428204E+08 -1.140290E+09  3.224805E+08
        55   3  2.947136E+08 -6.212979E+07 -3.494911E+08 -1.288766E+08 -1.619959E+09 -9.601933E+07
        55   4  2.087678E+08 -1.199408E+08 -4.566862E+08 -1.332828E+08 -1.861653E+09 -2.746856E+07
        55   5  1.725726E+09  4.328396E+08  2.816386E+08 -5.215024E+08 -8.827998E+08  2.689088E+08
        55   6  1.506156E+09  3.116420E+08  9.606074E+07 -5.330129E+08 -1.138375E+09  2.978603E+08
        55   7  1.760727E+09  4.289688E+08  2.376424E+08 -4.809741E+08 -1.604033E+09 -1.097685E+08
        55   8  1.540955E+09  3.141981E+08  7.321177E+07 -4.974180E+08 -1.856499E+09 -4.472311E+07
        56   1  2.388686E+09  3.403376E+08 -2.097596E+08 -7.938085E+08 -2.527370E+08  2.239967E+08
        56   2  2.114075E+09  1.680289E+08 -5.166838E+08 -8.028056E+08 -3.901602E+08  2.066893E+08
        56   3  2.372293E+09  2.793960E+08 -3.722598E+08 -7.533184E+08 -9.489714E+08 -8.458136E+07
        56   4  2.114188E+09  1.309630E+08 -6.190623E+08 -7.671899E+08 -1.147444E+09 -6.490168E+07
        56   5  3.826341E+09  6.604883E+08  3.175819E+08 -1.155997E+09 -2.142481E+08  1.814202E+08
        56   6  3.667958E+09  5.431329E+08  6.201238E+07 -1.149701E+09 -3.775194E+08  1.577613E+08
        56   7  3.756886E+09  5.594306E+08  1.271284E+08 -1.145280E+09 -9.004784E+08 -1.056910E+08
        56   8  3.623665E+09  4.717799E+08 -6.397411E+07 -1.140085E+09 -1.126517E+09 -9.498142E+07
        57   1 -2.937054E+09 -3.488761E+08  1.985126E+08  9.399169E+08 -1.203527E+08  2.241325E+08
        57   2 -3.081892E+09 -4.471133E+08  1.435019E+07  9.315104E+08 -9.820366E+07  6.487374E+07
        57   3 -2.874129E+09 -2.740871E+08  3.825824E+08  9.267975E+08 -8.450616E+08 -4.453341E+07
        57   4 -2.996481E+09 -3.459582E+08  2.633460E+08  9.157006E+08 -7.652108E+08 -2.886491E+08
        57   5 -4.678691E+09 -7.574893E+08 -4.465626E+08  1.370098E+09 -6.041500E+07  2.146091E+08
        57   6 -4.574998E+09 -7.425306E+08 -5.222068E+08  1.394645E+09  4.679367E+06  7.182609E+07
        57   7 -4.550485E+09 -6.447538E+08 -2.315244E+08  1.398538E+09 -7.745992E+08 -2.947884E+07
        57   8 -4.403251E+09 -5.923502E+08 -2.326024E+08  1.429152E+09 -6.483018E+08 -2.520517E+08
        58   1 -2.117123E+09 -4.607026E+08 -3.654089E+08  6.171066E+08 -7.139202E+08  1.304837E+08
        58   2 -2.125753E+09 -4.520848E+08 -3.211394E+08  5.947626E+08 -1.472017E+09 -2.275994E+08
        58   3 -2.291091E+09 -5.588493E+08 -5.139625E+08  6.009636E+08 -5.527237E+08 -3.239527E+07
        58   4 -2.303648E+09 -5.482180E+08 -4.576297E+08  5.739697E+08 -1.315191E+09 -4.704906E+08
        58   5 -3.949937E+08  4.884272E+07  3.040934E+08  1.653532E+08 -7.276529E+08  1.447772E+08
        58   6 -3.786080E+08  6.985014E+07  3.595847E+08  1.593661E+08 -1.488405E+09 -2.195066E+08
        58   7 -4.698708E+08 -5.718053E+06  1.983429E+08  1.610277E+08 -5.772912E+08 -2.225838E+07
        58   8 -4.492000E+08  2.116602E+07  2.695199E+08  1.537947E+08 -1.343297E+09 -4.678329E+08
        59   1  3.949937E+08 -4.884272E+07 -3.040934E+08 -1.653532E+08 -7.276529E+08  1.447772E+08
        59   2  3.786080E+08 -6.985014E+07 -3.595847E+08 -1.593661E+08 -1.488405E+09 -2.195066E+08
        59   3  4.698708E+08  5.718053E+06 -1.983429E+08 -1.610277E+08 -5.772912E+08 -2.225838E+07
        59   4  4.492000E+08 -2.116602E+07 -2.695199E+08 -1.537947E+08 -1.343297E+09 -4.678329E+08
        59   5  2.117123E+09  4.607026E+08  3.654089E+08 -6.171066E+08 -7.139202E+08  1.304837E+08
        59   6  2.125753E+09  4.520848E+08  3.211394E+08 -5.947626E+08 -1.472017E+09 -2.275994E+08
        59   7  2.291091E+09  5.588493E+08  5.139625E+08 -6.009636E+08 -5.527237E+08 -3.239527E+07
        59   8  2.303648E+09  5.482180E+08  4.576297E+08 -5.739697E+08 -1.315191E+09 -4.704906E+08
        60   1  2.937054E+09  3.488761E+08 -1.985126E+08 -9.399169E+08 -1.203527E+08  2.241325E+08
        60   2  2.874129E+09  2.740871E+08 -3.825824E+08 -9.267975E+08 -8.450616E+08 -4.453341E+07
        60   3  3.081892E+09  4.471133E+08 -1.435019E+07 -9.315104E+08 -9.820366E+07  6.487374E+07
        60   4  2.996481E+09  3.459582E+08 -2.633460E+08 -9.157006E+08 -7.652108E+08 -2.886491E+08
        60   5  4.678691E+09  7.574893E+08  4.465626E+08 -1.370098E+09 -6.041500E+07  2.146091E+08
        60   6  4.550485E+09  6.447538E+08  2.315244E+08 -1.398538E+09 -7.745993E+08 -2.947884E+07
        60   7  4.574998E+09  7.425306E+08  5.222068E+08 -1.394645E+09  4.679366E+06  7.182609E+07
        60   8  4.403251E+09  5.923502E+08  2.326024E+08 -1.429152E+09 -6.483018E+08 -2.520517E+08
        61   1 -2.904058E+09 -3.295167E+08  2.836834E+08  7.949842E+08 -1.912950E+08  7.757418E+07
        61   2 -3.058677E+09 -4.160612E+08  3.069613E+08  6.579657E+08 -1.088045E+09 -4.785423E+08
        61   3 -2.301197E+09 -2.139817E+07  6.355178E+08  8.764904E+08 -7.990866E+07  2.623834E+08
        61   4 -2.461831E+09 -1.295229E+08  5.720289E+08  7.581066E+08 -9.903197E+08 -2.028749E+08
        61   5 -4.638724E+09 -6.524254E+08 -3.335889E+08  1.245757E+09 -1.559412E+08  6.817821E+07
        61   6 -4.781480E+09 -7.053990E+08 -2.966809E+08  1.110550E+09 -1.039947E+09 -4.562489E+08
        61   7 -4.033517E+09 -3.564203E+08  1.531532E+07  1.316307E+09 -8.259417E+07  2.383939E+08
        61   8 -4.183668E+09 -4.353449E+08 -3.626880E+07  1.199243E+09 -9.827503E+08 -1.993791E+08
        62   1 -2.100383E+09 -4.774450E+08 -3.232261E+08  4.968575E+08 -8.374335E+08 -2.408955E+06
        62   2 -1.633453E+09 -2.387973E+08 -6.322437E+07  5.643022E+08 -7.229230E+08  2.340638E+08
        62   3 -2.251398E+09 -5.810379E+08 -3.686433E+08  3.882714E+08 -1.716751E+09 -6.496065E+08
        62   4 -1.766786E+09 -3.361214E+08 -1.251783E+08  4.705547E+08 -1.532986E+09 -3.073097E+08
        62   5 -3.726926E+08  6.217229E+07  3.569662E+08  1.331326E+08 -8.456989E+08  8.547620E+06
        62   6 -2.271682E+08  1.465286E+08  4.742588E+08  1.512043E+08 -7.198615E+08  2.493659E+08
        62   7 -4.000792E+08  4.749236E+07  3.753113E+08  1.040370E+08 -1.728811E+09 -6.480860E+08
        62   8 -2.598357E+08  1.235098E+08  4.647962E+08  1.260848E+08 -1.532978E+09 -3.001919E+08
        63   1  3.726926E+08 -6.217229E+07 -3.569662E+08 -1.331326E+08 -8.456989E+08  8.547620E+06
        63   2  2.271682E+08 -1.465286E+08 -4.742588E+08 -1.512043E+08 -7.198615E+08  2.493659E+08
        63   3  4.000792E+08 -4.749236E+07 -3.753113E+08 -1.040370E+08 -1.728811E+09 -6.480860E+08
        63   4  2.598357E+08 -1.235098E+08 -4.647962E+08 -1.260847E+08 -1.532978E+09 -3.001919E+08
        63   5  2.100383E+09  4.774450E+08  3.232261E+08 -4.968575E+08 -8.374335E+08 -2.408955E+06
        63   6  1.633453E+09  2.387973E+08  6.322437E+07 -5.643022E+08 -7.229230E+08  2.340638E+08
        63   7  2.251398E+09  5.810379E+08  3.686433E+08 -3.882714E+08 -1.716751E+09 -6.496065E+08
        63   8  1.766786E+09  3.361214E+08  1.251783E+08 -4.705547E+08 -1.532986E+09 -3.073097E+08
        64   1  2.904058E+09  3.295167E+08 -2.836834E+08 -7.949842E+08 -1.912950E+08  7.757418E+07
        64   2  2.301197E+09  2.139816E+07 -6.355178E+08 -8.764904E+08 -7.990866E+07  2.623834E+08
        64   3  3.058677E+09  4.160612E+08 -3.069613E+08 -6.579657E+08 -1.088045E+09 -4.785423E+08
        64   4  2.461831E+09  1.295229E+08 -5.720289E+08 -7.581066E+08 -9.903197E+08 -2.028749E+08
        64   5  4.638724E+09  6.524254E+08  3.335889E+08 -1.245757E+09 -1.559412E+08  6.817821E+07
        64   6  4.033517E+09  3.564203E+08 -1.531532E+07 -1.316307E+09 -8.259417E+07  2.383939E+08
        64   7  4.781480E+09  7.053990E+08  2.966809E+08 -1.110550E+09 -1.039947E+09 -4.562489E+08
        64   8  4.183668E+09  4.353449E+08  3.626880E+07 -1.199243E+09 -9.827503E+08 -1.993791E+08
        65   1 -3.249101E+09 -1.724656E+08  3.619329E+08  9.711727E+08  1.476018E+07  3.940240E+08
        65   2 -4.243487E+09 -5.869530E+08 -3.580969E+07  8.223889E+08 -3.465323E+08 -1.575666E+08
        65   3 -3.445657E+09 -2.447308E+08  3.061574E+08  8.069870E+08 -9.051891E+08 -1.204091E+08
        65   4 -4.418021E+09 -5.881078E+08  1.207372E+08  6.196990E+08 -1.288584E+09 -8.218343E+08
        65   5 -5.327636E+09 -5.513646E+08 -3.752972E+08  1.480524E+09  3.159505E+07  4.099998E+08
        65   6 -6.280238E+09 -8.578655E+08 -7.281088E+08  1.391163E+09 -2.072394E+08 -7.750702E+07
        65   7 -5.473812E+09 -5.038671E+08 -3.800300E+08  1.328132E+09 -8.625576E+08 -3.459258E+07
        65   8 -6.392742E+09 -7.111943E+08 -5.086052E+08  1.205113E+09 -1.113216E+09 -6.555213E+08
        66   1 -2.322245E+09 -3.864212E+08 -3.412207E+08  6.189027E+08 -5.793006E+08  1.521312E+08
        66   2 -2.498455E+09 -4.846355E+08 -4.154561E+08  4.860090E+08 -1.462380E+09 -4.767492E+08
        66   3 -3.158655E+09 -7.845916E+08 -7.614507E+08  4.844067E+08 -9.480358E+08 -4.195404E+08
        66   4 -3.405069E+09 -9.190329E+08 -8.681594E+08  3.197468E+08 -1.963470E+09 -1.232834E+09
        66   5 -4.231628E+08  9.553959E+07  3.730922E+08  1.658345E+08 -5.771461E+08  1.675954E+08
        66   6 -4.669606E+08  7.264064E+07  3.611750E+08  1.302257E+08 -1.460091E+09 -4.609223E+08
        66   7 -6.683342E+08 -3.220575E+07  2.113614E+08  1.297964E+08 -9.452454E+08 -4.037434E+08
        66   8 -7.311728E+08 -6.504150E+07  1.902068E+08  8.567590E+07 -1.960492E+09 -1.216589E+09
        67   1  4.231628E+08 -9.553959E+07 -3.730922E+08 -1.658345E+08 -5.771461E+08  1.675954E+08
        67   2  4.669606E+08 -7.264064E+07 -3.611750E+08 -1.302257E+08 -1.460091E+09 -4.609223E+08
        67   3  6.683342E+08  3.220575E+07 -2.113614E+08 -1.297964E+08 -9.452454E+08 -4.037434E+08
        67   4  7.311728E+08  6.504150E+07 -1.902068E+08 -8.567590E+07 -1.960492E+09 -1.216589E+09
        67   5  2.322245E+09  3.864212E+08  3.412207E+08 -6.189027E+08 -5.793006E+08  1.521312E+08
        67   6  2.498455E+09  4.846355E+08  4.154561E+08 -4.860090E+08 -1.462380E+09 -4.767492E+08
        67   7  3.158655E+09  7.845916E+08  7.614507E+08 -4.844067E+08 -9.480358E+08 -4.195404E+08
        67   8  3.405069E+09  9.190329E+08  8.681594E+08 -3.197468E+08 -1.963470E+09 -1.232834E+09
        68   1  3.249101E+09  1.724656E+08 -3.619329E+08 -9.711727E+08  1.476017E+07  3.940240E+08
        68   2  3.445657E+09  2.447308E+08 -3.061574E+08 -8.069870E+08 -9.051891E+08 -1.204091E+08
        68   3  4.243487E+09  5.869530E+08  3.580969E+07 -8.223889E+08 -3.465323E+08 -1.575666E+08
        68   4  4.418021E+09  5.881078E+08 -1.207372E+08 -6.196990E+08 -1.288584E+09 -8.218343E+08
        68   5  5.327636E+09  5.513646E+08  3.752972E+08 -1.480524E+09  3.159505E+07  4.099998E+08
        68   6  5.473812E+09  5.038671E+08  3.800300E+08 -1.328132E+09 -8.625576E+08 -3.459258E+07
        68   7  6.280238E+09  8.578655E+08  7.281088E+08 -1.391163E+09 -2.072394E+08 -7.750702E+07
        68   8  6.392742E+09  7.111943E+08  5.086052E+08 -1.205113E+09 -1.113216E+09 -6.555213E+08
        69   1 -3.112866E+09 -2.216870E+08  3.673899E+08  6.944596E+08 -5.338599E+07 -9.837337E+07
        69   2 -3.354204E+09 -3.160523E+08  2.212474E+08  5.064865E+08 -1.054074E+09 -8.419546E+08
        69   3 -2.347691E+09  8.096075E+07  6.562466E+08  8.027856E+08  2.466222E+08  3.357509E+08
        69   4 -2.544242E+09 -2.254590E+05  5.198077E+08  6.418058E+08 -6.804477E+08 -3.058229E+08
        69   5 -5.088365E+09 -4.862260E+08 -3.046216E+08  1.138652E+09 -7.181774E+07 -9.896354E+07
        69   6 -5.348679E+09 -4.515589E+08 -4.177470E+08  8.908058E+08 -1.072232E+09 -8.417428E+08
        69   7 -4.051755E+09 -1.522701E+08  7.505823E+07  1.237372E+09  2.272406E+08  3.346637E+08
        69   8 -4.257314E+09 -1.200157E+08 -3.005111E+07  1.023891E+09 -6.996172E+08 -3.062243E+08
        70   1 -2.223104E+09 -4.368154E+08 -3.057210E+08  4.194758E+08 -6.092109E+08 -3.111331E+08
        70   2 -1.679518E+09 -1.886933E+08 -6.103029E+07  5.076827E+08 -1.977396E+08  2.042236E+08
        70   3 -2.387555E+09 -5.280784E+08 -3.828899E+08  2.885098E+08 -1.515101E+09 -1.120007E+09
        70   4 -1.821810E+09 -2.753486E+08 -1.540628E+08  3.958776E+08 -1.000481E+09 -4.566078E+08
        70   5 -3.877816E+08  9.085314E+07  4.031764E+08  1.123982E+08 -6.081321E+08 -3.085044E+08
        70   6 -2.390964E+08  1.603688E+08  4.758148E+08  1.360332E+08 -1.865615E+08  2.121374E+08
        70   7 -4.320381E+08  6.620728E+07  3.820510E+08  7.730597E+07 -1.516929E+09 -1.125905E+09
        70   8 -2.875066E+08  1.268664E+08  4.268927E+08  1.060751E+08 -9.915589E+08 -4.559857E+08
        71   1  3.877816E+08 -9.085314E+07 -4.031764E+08 -1.123982E+08 -6.081321E+08 -3.085044E+08
        71   2  2.390964E+08 -1.603688E+08 -4.758148E+08 -1.360332E+08 -1.865615E+08  2.121374E+08
        71   3  4.320381E+08 -6.620728E+07 -3.820510E+08 -7.730597E+07 -1.516929E+09 -1.125905E+09
        71   4  2.875066E+08 -1.268664E+08 -4.268927E+08 -1.060751E+08 -9.915589E+08 -4.559857E+08
        71   5  2.223104E+09  4.368154E+08  3.057210E+08 -4.194758E+08 -6.092109E+08 -3.111331E+08
        71   6  1.679518E+09  1.886933E+08  6.103029E+07 -5.076827E+08 -1.977396E+08  2.042236E+08
        71   7  2.387555E+09  5.280784E+08  3.828899E+08 -2.885098E+08 -1.515101E+09 -1.120007E+09
        71   8  1.821810E+09  2.753486E+08  1.540628E+08 -3.958776E+08 -1.000481E+09 -4.566078E+08
        72   1  3.112866E+09  2.216870E+08 -3.673899E+08 -6.944596E+08 -5.338599E+07 -9.837338E+07
        72   2  2.347691E+09 -8.096075E+07 -6.562466E+08 -8.027856E+08  2.466222E+08  3.357509E+08
        72   3  3.354204E+09  3.160523E+08 -2.212474E+08 -5.064865E+08 -1.054074E+09 -8.419546E+08
        72   4  2.544242E+09  2.254591E+05 -5.198077E+08 -6.418058E+08 -6.804477E+08 -3.058229E+08
        72   5  5.088365E+09  4.862260E+08  3.046216E+08 -1.138652E+09 -7.181774E+07 -9.896354E+07
        72   6  4.051755E+09  1.522701E+08 -7.505823E+07 -1.237372E+09  2.272406E+08  3.346637E+08
        72   7  5.348679E+09  4.515589E+08  4.177470E+08 -8.908058E+08 -1.072232E+09 -8.417428E+08
        72   8  4.257314E+09  1.200157E+08  3.005111E+07 -1.023891E+09 -6.996172E+08 -3.062243E+08
        73   1 -3.080358E+09  1.003184E+08  4.837163E+08  7.464969E+08  2.826528E+08  5.487555E+08
        73   2 -5.729889E+09 -6.518774E+08 -2.437443E+08  3.289457E+08 -7.548023E+08 -5.871654E+08
        73   3 -3.553742E+09  1.027614E+08  2.204509E+08  2.873211E+08 -7.303530E+08 -4.254548E+08
        73   4 -6.400046E+09 -6.529884E+08 -5.226661E+08 -2.481392E+08 -2.092781E+09 -1.691890E+09
        73   5 -5.171033E+09 -1.100794E+08 -2.066055E+08  1.128646E+09  2.491648E+08  6.103027E+08
        73   6 -8.935073E+09 -7.253887E+08 -1.227353E+09  7.578847E+08 -7.651846E+08 -5.101600E+08
        73   7 -5.625577E+09  4.267275E+08 -3.039098E+08  4.918063E+08 -7.597016E+08 -3.506691E+08
        73   8 -9.636435E+09 -7.184760E+07 -1.319241E+09 -3.238141E+07 -2.097022E+09 -1.598081E+09
        74   1 -2.176580E+09 -2.108486E+08 -2.375349E+08  4.784264E+08 -1.869466E+08  1.662095E+08
        74   2 -2.505755E+09 -3.135702E+08 -3.773199E+08  1.675732E+08 -1.093602E+09 -8.260243E+08
        74   3 -4.089598E+09 -9.887318E+08 -1.065236E+09  1.356073E+08 -1.364106E+09 -1.087364E+09
        74   4 -4.532186E+09 -1.101651E+09 -1.159682E+09 -2.579852E+08 -2.608147E+09 -2.387352E+09
        74   5 -3.810427E+08  1.456733E+08  4.080827E+08  1.281940E+08 -1.790481E+08  1.773465E+08
        74   6 -4.735596E+08  1.138346E+08  3.605602E+08  4.490110E+07 -1.095117E+09 -8.449932E+08
        74   7 -9.022630E+08 -7.138847E+07  1.661675E+08  3.633586E+07 -1.408753E+09 -1.111381E+09
        74   8 -9.903591E+08 -7.114986E+07  2.120161E+08 -6.912692E+07 -2.666757E+09 -2.449582E+09
        75   1  3.810427E+08 -1.456733E+08 -4.080827E+08 -1.281940E+08 -1.790481E+08  1.773465E+08
        75   2  4.735596E+08 -1.138346E+08 -3.605602E+08 -4.490110E+07 -1.095117E+09 -8.449932E+08
        75   3  9.022630E+08  7.138847E+07 -1.661675E+08 -3.633586E+07 -1.408753E+09 -1.111381E+09
        75   4  9.903591E+08  7.114986E+07 -2.120161E+08  6.912692E+07 -2.666757E+09 -2.449582E+09
        75   5  2.176580E+09  2.108486E+08  2.375349E+08 -4.784264E+08 -1.869466E+08  1.662095E+08
        75   6  2.505755E+09  3.135702E+08  3.773199E+08 -1.675732E+08 -1.093602E+09 -8.260243E+08
        75   7  4.089598E+09  9.887318E+08  1.065236E+09 -1.356073E+08 -1.364106E+09 -1.087364E+09
        75   8  4.532186E+09  1.101651E+09  1.159682E+09  2.579852E+08 -2.608147E+09 -2.387352E+09
        76   1  3.080358E+09 -1.003184E+08 -4.837163E+08 -7.464969E+08  2.826528E+08  5.487555E+08
        76   2  3.553742E+09 -1.027614E+08 -2.204509E+08 -2.873211E+08 -7.303530E+08 -4.254548E+08
        76   3  5.729889E+09  6.518774E+08  2.437443E+08 -3.289457E+08 -7.548023E+08 -5.871654E+08
        76   4  6.400046E+09  6.529884E+08  5.226661E+08  2.481392E+08 -2.092781E+09 -1.691890E+09
        76   5  5.171033E+09  1.100794E+08  2.066055E+08 -1.128646E+09  2.491648E+08  6.103027E+08
        76   6  5.625577E+09 -4.267275E+08  3.039098E+08 -4.918063E+08 -7.597016E+08 -3.506691E+08
        76   7  8.935073E+09  7.253887E+08  1.227353E+09 -7.578847E+08 -7.651846E+08 -5.101600E+08
        76   8  9.636435E+09  7.184760E+07  1.319241E+09  3.238141E+07 -2.097022E+09 -1.598081E+09
        77   1 -2.593020E+09  5.603188E+07  5.004062E+08  5.701764E+08  2.557077E+08 -9.226769E+07
        77   2 -2.597584E+09  2.368042E+08  4.325321E+08  5.397209E+08 -5.525986E+08 -7.261242E+08
        77   3 -2.485279E+09 -7.814589E+07  4.679986E+08  5.206285E+08  3.053613E+08  2.844844E+08
        77   4 -2.467257E+09  9.286073E+07  4.518182E+08  4.927499E+08 -4.546148E+08 -2.463886E+08
        77   5 -4.352153E+09 -1.570428E+08 -9.125597E+07  8.450425E+08  1.993973E+08 -1.229286E+08
        77   6 -4.389440E+09  6.251284E+07 -1.573120E+08  7.585553E+08 -6.156240E+08 -7.805974E+08
        77   7 -4.017823E+09 -2.349947E+08 -3.881933E+07  8.215209E+08  2.766068E+08  2.722588E+08
        77   8 -4.021172E+09 -2.869713E+07 -5.082368E+07  7.459463E+08 -4.883358E+08 -2.786577E+08
        78   1 -1.835756E+09 -1.928234E+08 -1.310992E+08  3.703370E+08 -1.122090E+08 -3.583048E+08
        78   2 -1.818765E+09 -3.174481E+08 -1.871497E+08  3.237466E+08  6.027387E+07  1.446066E+08
        78   3 -1.797291E+09 -2.883019E+07 -1.090453E+08  3.624924E+08 -8.157099E+08 -9.284238E+08
        78   4 -1.784854E+09 -1.792388E+08 -1.695505E+08  3.155281E+08 -6.311309E+08 -3.443842E+08
        78   5 -2.902342E+08  1.499884E+08  4.354010E+08  9.923149E+07 -9.575229E+07 -3.541016E+08
        78   6 -2.957163E+08  1.065604E+08  3.969675E+08  8.674763E+07  7.265217E+07  1.460814E+08
        78   7 -2.962650E+08  1.775927E+08  4.031895E+08  9.712954E+07 -7.982593E+08 -9.206962E+08
        78   8 -3.010049E+08  1.292184E+08  3.681414E+08  8.454549E+07 -6.180176E+08 -3.399430E+08
        79   1  2.902342E+08 -1.499884E+08 -4.354009E+08 -9.923149E+07 -9.575229E+07 -3.541016E+08
        79   2  2.957163E+08 -1.065604E+08 -3.969675E+08 -8.674763E+07  7.265217E+07  1.460814E+08
        79   3  2.962650E+08 -1.775927E+08 -4.031895E+08 -9.712954E+07 -7.982593E+08 -9.206962E+08
        79   4  3.010049E+08 -1.292184E+08 -3.681414E+08 -8.454549E+07 -6.180176E+08 -3.399430E+08
        79   5  1.835756E+09  1.928234E+08  1.310992E+08 -3.703370E+08 -1.122090E+08 -3.583048E+08
        79   6  1.818765E+09  3.174481E+08  1.871497E+08 -3.237466E+08  6.027387E+07  1.446066E+08
        79   7  1.797291E+09  2.883019E+07  1.090453E+08 -3.624924E+08 -8.157099E+08 -9.284238E+08
        79   8  1.784854E+09  1.792388E+08  1.695505E+08 -3.155281E+08 -6.311309E+08 -3.443842E+08
        80   1  2.593020E+09 -5.603188E+07 -5.004062E+08 -5.701764E+08  2.557076E+08 -9.226770E+07
        80   2  2.485279E+09  7.814589E+07 -4.679986E+08 -5.206285E+08  3.053613E+08  2.844844E+08
        80   3  2.597584E+09 -2.368042E+08 -4.325321E+08 -5.397209E+08 -5.525986E+08 -7.261242E+08
        80   4  2.467257E+09 -9.286073E+07 -4.518182E+08 -4.927499E+08 -4.546148E+08 -2.463886E+08
        80   5  4.352153E+09  1.570428E+08  9.125597E+07 -8.450425E+08  1.993973E+08 -1.229286E+08
        80   6  4.017823E+09  2.349947E+08  3.881933E+07 -8.215209E+08  2.766068E+08  2.722588E+08
        80   7  4.389440E+09 -6.251284E+07  1.573120E+08 -7.585553E+08 -6.156240E+08 -7.805974E+08
        80   8  4.021172E+09  2.869713E+07  5.082368E+07 -7.459463E+08 -4.883358E+08 -2.786577E+08
        81   1 -1.833454E+07 -3.765095E+07  1.084945E+08 -5.113130E+07  1.249685E+08 -7.914629E+06
        81   2 -1.042317E+08 -4.605603E+07  1.118022E+08 -2.285704E+07  1.882267E+08 -6.841441E+07
        81   3 -2.556016E+07  1.383990E+07  3.273850E+08 -8.249551E+07  2.495410E+08  1.065446E+08
        81   4 -2.826939E+07  8.099278E+07  5.045988E+08 -5.691491E+07  2.704858E+08  6.780124E+07
        81   5 -1.631895E+08 -1.523574E+07  7.176256E+07 -1.361672E+07  1.892327E+08 -5.830929E+07
        81   6 -3.064860E+08 -5.097586E+07  4.964992E+07  3.243748E+07  2.849297E+08 -1.530395E+08
        81   7 -2.279599E+08  1.359937E+07  2.665929E+08 -5.640704E+07  3.477712E+08  8.125783E+07
        81   8 -2.823929E+08  5.611197E+07  4.208975E+08 -1.475457E+07  3.979447E+08  1.156716E+07
        82   1  5.024136E+06 -5.849696E+07  4.406275E+07 -5.115551E+07  3.104282E+08  4.159192E+07
        82   2 -2.668188E+07 -5.396637E+07  1.241973E+08 -7.259325E+07  5.351164E+08  2.008133E+08
        82   3 -4.262348E+07 -5.370736E+07  6.224057E+07 -3.398893E+07  3.305101E+08 -1.950765E+07
        82   4 -4.993387E+07 -2.993818E+07  1.864658E+08 -5.705802E+07  5.123749E+08  1.517869E+08
        82   5  2.673061E+07  9.710184E+06  7.103684E+07 -1.370708E+07  2.774677E+08  5.926420E+07
        82   6  5.552194E+07  4.821108E+07  1.795117E+08 -1.945130E+07  4.945337E+08  2.128511E+08
        82   7  2.707079E+07  2.410088E+07  1.064913E+08 -9.107307E+06  2.902701E+08  5.846198E+06
        82   8  7.549156E+07  8.084939E+07  2.573297E+08 -1.528865E+07  4.652331E+08  1.707696E+08
        83   1 -2.673061E+07 -9.710184E+06 -7.103684E+07  1.370708E+07  2.774677E+08  5.926420E+07
        83   2 -5.552194E+07 -4.821108E+07 -1.795117E+08  1.945130E+07  4.945337E+08  2.128511E+08
        83   3 -2.707079E+07 -2.410088E+07 -1.064913E+08  9.107307E+06  2.902701E+08  5.846198E+06
        83   4 -7.549156E+07 -8.084939E+07 -2.573297E+08  1.528865E+07  4.652331E+08  1.707696E+08
        83   5 -5.024136E+06  5.849696E+07 -4.406275E+07  5.115551E+07  3.104282E+08  4.159192E+07
        83   6  2.668188E+07  5.396637E+07 -1.241973E+08  7.259325E+07  5.351164E+08  2.008133E+08
        83   7  4.262348E+07  5.370736E+07 -6.224057E+07  3.398893E+07  3.305101E+08 -1.950765E+07
        83   8  4.993387E+07  2.993818E+07 -1.864658E+08  5.705802E+07  5.123749E+08  1.517869E+08
        84   1  1.833454E+07  3.765095E+07 -1.084945E+08  5.113130E+07  1.249685E+08 -7.914629E+06
        84   2  2.556016E+07 -1.383990E+07 -3.273850E+08  8.249551E+07  2.495410E+08  1.065446E+08
        84   3  1.042317E+08  4.605602E+07 -1.118022E+08  2.285704E+07  1.882267E+08 -6.841441E+07
        84   4  2.826939E+07 -8.099278E+07 -5.045988E+08  5.691491E+07  2.704858E+08  6.780124E+07
        84   5  1.631895E+08  1.523574E+07 -7.176256E+07  1.361672E+07  1.892327E+08 -5.830929E+07
        84   6  2.279599E+08 -1.359937E+07 -2.665929E+08  5.640704E+07  3.477712E+08  8.125783E+07
        84   7  3.064860E+08  5.097586E+07 -4.964992E+07 -3.243748E+07  2.849297E+08 -1.530395E+08
        84   8  2.823929E+08 -5.611197E+07 -4.208975E+08  1.475457E+07  3.979447E+08  1.156716E+07
        85   1 -2.648405E+07  5.036308E+05  3.298690E+07 -3.366996E+07 -2.473462E+07  2.656918E+07
        85   2  1.976252E+07  2.357022E+07  2.850869E+07 -1.662500E+07 -4.306703E+07 -1.735992E+07
        85   3 -6.541870E+07 -8.363299E+06  7.265307E+06 -2.596313E+07 -4.934250E+07  6.604268E+07
        85   4 -1.848365E+07  1.942304E+07  1.326983E+07 -7.938369E+06 -5.028120E+07  1.039228E+06
        85   5 -1.580316E+08  1.205586E+07 -3.011701E+06  1.405161E+07 -2.181318E+07  1.669566E+07
        85   6 -9.221508E+07  2.085867E+07 -5.898059E+06  2.701665E+07 -3.728220E+07 -2.511679E+07
        85   7 -2.309431E+08 -3.401030E+07 -5.008612E+07  3.593016E+07 -4.843170E+07  5.828457E+07
        85   8 -1.689781E+08 -2.537525E+07 -4.531799E+07  5.175911E+07 -4.677965E+07 -4.327328E+06
        86   1  7.748523E+06 -1.227632E+07  1.461760E+07 -4.033069E+07  1.093330E+08  2.391107E+07
        86   2 -6.003853E+05  4.018655E+06  2.977807E+07 -3.834352E+07  5.626073E+07  5.772498E+07
        86   3  3.145168E+07  2.912324E+06 -5.989463E+06 -2.570999E+07 -1.418325E+07 -5.320648E+07
        86   4  1.003091E+07  9.415122E+06 -1.657108E+07 -2.349397E+07 -4.887917E+07 -2.317954E+07
        86   5  8.823441E+06  3.457801E+06  1.966031E+07 -1.080658E+07  9.649285E+07  2.978669E+07
        86   6  1.198241E+07  1.322008E+07  3.631333E+07 -1.027412E+07  3.882610E+07  6.843446E+07
        86   7  1.543923E+06 -6.103174E+06 -1.766644E+07 -6.888970E+06 -2.048039E+07 -4.249418E+07
        86   8 -6.774638E+06 -6.939637E+06 -2.651917E+07 -6.295191E+06 -6.039375E+07 -7.005210E+06
        87   1 -8.823441E+06 -3.457801E+06 -1.966031E+07  1.080658E+07  9.649285E+07  2.978669E+07
        87   2 -1.198241E+07 -1.322008E+07 -3.631333E+07  1.027412E+07  3.882610E+07  6.843446E+07
        87   3 -1.543923E+06  6.103174E+06  1.766644E+07  6.888970E+06 -2.048039E+07 -4.249418E+07
        87   4  6.774638E+06  6.939637E+06  2.651917E+07  6.295191E+06 -6.039375E+07 -7.005210E+06
        87   5 -7.748523E+06  1.227632E+07 -1.461760E+07  4.033069E+07  1.093330E+08  2.391107E+07
        87   6  6.003851E+05 -4.018654E+06 -2.977807E+07  3.834352E+07  5.626073E+07  5.772498E+07
        87   7 -3.145168E+07 -2.912324E+06  5.989462E+06  2.570999E+07 -1.418325E+07 -5.320648E+07
        87   8 -1.003091E+07 -9.415122E+06  1.657107E+07  2.349397E+07 -4.887917E+07 -2.317954E+07
        88   1  2.648405E+07 -5.036308E+05 -3.298690E+07  3.366996E+07 -2.473462E+07  2.656918E+07
        88   2  6.541870E+07  8.363299E+06 -7.265307E+06  2.596313E+07 -4.934250E+07  6.604268E+07
        88   3 -1.976252E+07 -2.357022E+07 -2.850869E+07  1.662500E+07 -4.306703E+07 -1.735992E+07
        88   4  1.848365E+07 -1.942304E+07 -1.326983E+07  7.938369E+06 -5.028120E+07  1.039228E+06
        88   5  1.580316E+08 -1.205586E+07  3.011701E+06 -1.405161E+07 -2.181318E+07  1.669566E+07
        88   6  2.309431E+08  3.401030E+07  5.008612E+07 -3.593016E+07 -4.843170E+07  5.828457E+07
        88   7  9.221508E+07 -2.085867E+07  5.898058E+06 -2.701664E+07 -3.728220E+07 -2.511679E+07
        88   8  1.689781E+08  2.537525E+07  4.531799E+07 -5.175911E+07 -4.677965E+07 -4.327329E+06
        89   1 -2.999289E+08 -8.674545E+07  1.812496E+07 -1.155919E+08  2.073045E+08  9.403459E+07
        89   2 -3.674127E+08 -6.865128E+07  1.744369E+08 -1.496098E+08  3.572824E+08  1.892772E+08
        89   3 -1.381806E+08 -1.415694E+07  1.441679E+08 -1.572922E+08  2.161213E+08  1.231631E+08
        89   4 -2.007567E+08  1.805228E+07  3.382620E+08 -1.873840E+08  4.070952E+08  1.969111E+08
        89   5 -5.613739E+08 -6.267342E+07 -5.308693E+07 -9.539708E+07  2.317502E+08  3.266605E+07
        89   6 -6.727019E+08 -6.740046E+07  8.322541E+07 -1.391135E+08  3.738055E+08  1.229667E+08
        89   7 -3.674450E+08  1.722824E+07  8.480413E+07 -1.471218E+08  2.473227E+08  5.385155E+07
        89   8 -4.772552E+08  2.577988E+07  2.576308E+08 -1.859762E+08  4.296689E+08  1.234133E+08
        90   1 -1.895400E+08 -1.038292E+08 -3.156939E+07 -9.699423E+07  4.365037E+08  1.657519E+08
        90   2 -8.449468E+07 -6.192338E+07  3.354309E+07 -1.269883E+08  4.733953E+08  2.222614E+08
        90   3 -2.619472E+08 -1.148121E+08  2.318723E+07 -1.210235E+08  7.128819E+08  3.231884E+08
        90   4 -1.621812E+08 -7.166102E+07  9.483062E+07 -1.481915E+08  8.097009E+08  3.605119E+08
        90   5 -2.694982E+07 -3.983664E+06  4.716134E+07 -2.598953E+07  4.234956E+08  1.933537E+08
        90   6  1.007754E+07  1.612550E+07  8.532942E+07 -3.402642E+07  4.589078E+08  2.516026E+08
        90   7 -1.265991E+07  2.676484E+07  1.404465E+08 -3.242816E+07  7.016088E+08  3.518725E+08
        90   8  2.622222E+07  5.047703E+07  1.879931E+08 -3.970778E+07  7.971027E+08  3.907698E+08
        91   1  2.694982E+07  3.983664E+06 -4.716134E+07  2.598953E+07  4.234956E+08  1.933537E+08
        91   2 -1.007754E+07 -1.612550E+07 -8.532942E+07  3.402642E+07  4.589078E+08  2.516026E+08
        91   3  1.265991E+07 -2.676484E+07 -1.404465E+08  3.242816E+07  7.016088E+08  3.518725E+08
        91   4 -2.622222E+07 -5.047703E+07 -1.879931E+08  3.970778E+07  7.971027E+08  3.907698E+08
        91   5  1.895400E+08  1.038292E+08  3.156939E+07  9.699423E+07  4.365037E+08  1.657519E+08
        91   6  8.449468E+07  6.192338E+07 -3.354309E+07  1.269883E+08  4.733953E+08  2.222614E+08
        91   7  2.619472E+08  1.148121E+08 -2.318723E+07  1.210235E+08  7.128820E+08  3.231884E+08
        91   8  1.621812E+08  7.166102E+07 -9.483061E+07  1.481915E+08  8.097009E+08  3.605119E+08
        92   1  2.999289E+08  8.674545E+07 -1.812496E+07  1.155919E+08  2.073045E+08  9.403459E+07
        92   2  1.381806E+08  1.415694E+07 -1.441679E+08  1.572922E+08  2.161213E+08  1.231631E+08
        92   3  3.674127E+08  6.865128E+07 -1.744369E+08  1.496098E+08  3.572824E+08  1.892772E+08
        92   4  2.007567E+08 -1.805228E+07 -3.382620E+08  1.873840E+08  4.070952E+08  1.969111E+08
        92   5  5.613739E+08  6.267342E+07  5.308693E+07  9.539708E+07  2.317502E+08  3.266605E+07
        92   6  3.674450E+08 -1.722824E+07 -8.480413E+07  1.471218E+08  2.473227E+08  5.385155E+07
        92   7  6.727019E+08  6.740046E+07 -8.322541E+07  1.391135E+08  3.738055E+08  1.229667E+08
        92   8  4.772552E+08 -2.577988E+07 -2.576308E+08  1.859762E+08  4.296689E+08  1.234133E+08
        93   1 -2.929781E+08 -3.339641E+07 -3.790698E+07 -7.700061E+07  7.101326E+07  6.422114E+07
        93   2 -1.757173E+08  2.349000E+07  5.547800E+07 -1.072669E+08  9.451402E+07  6.256070E+07
        93   3 -1.534502E+08  2.195873E+07 -1.081798E+07 -4.614824E+07 -6.090197E+07 -2.670156E+07
        93   4 -2.701518E+07  7.930981E+07  7.764309E+07 -8.026765E+07 -7.024728E+07 -6.357952E+05
        93   5 -5.569396E+08 -7.376799E+06 -1.092895E+08 -4.287567E+07  6.433023E+07  4.600479E+07
        93   6 -4.158997E+08  6.817578E+07 -3.170985E+06 -8.212289E+07  8.862726E+07  4.341651E+07
        93   7 -3.904578E+08  5.231430E+07 -7.281360E+07 -1.059296E+07 -6.631860E+07 -4.412795E+07
        93   8 -2.368569E+08  1.308720E+08  3.015924E+07 -5.489092E+07 -7.475167E+07 -1.910924E+07
        94   1 -1.722186E+08 -5.120329E+07 -4.978061E+07 -7.057949E+07  2.297431E+08  7.634558E+07
        94   2 -7.143700E+07 -1.027747E+07 -3.457866E+07 -4.665989E+07 -1.586189E+07 -5.880549E+07
        94   3 -9.594869E+07 -2.107319E+07 -1.614218E+06 -9.185715E+07  2.711328E+08  9.512906E+07
        94   4  1.157749E+07  1.997258E+07  1.032703E+07 -7.063073E+07 -2.315887E+07 -2.080349E+07
        94   5 -3.886222E+07 -6.436275E+06  3.656404E+06 -1.891172E+07  2.286483E+08  8.788998E+07
        94   6 -2.339202E+07 -7.004373E+06 -1.918324E+07 -1.250248E+07 -1.838808E+07 -4.815399E+07
        94   7 -1.156432E+07  8.498512E+06  3.257260E+07 -2.461305E+07  2.691380E+08  1.077222E+08
        94   8  3.466236E+06  5.715694E+06  3.616585E+06 -1.892545E+07 -2.671617E+07 -8.968500E+06
        95   1  3.886222E+07  6.436275E+06 -3.656403E+06  1.891172E+07  2.286483E+08  8.788998E+07
        95   2  2.339202E+07  7.004373E+06  1.918324E+07  1.250248E+07 -1.838808E+07 -4.815399E+07
        95   3  1.156432E+07 -8.498512E+06 -3.257260E+07  2.461305E+07  2.691380E+08  1.077222E+08
        95   4 -3.466236E+06 -5.715694E+06 -3.616585E+06  1.892545E+07 -2.671617E+07 -8.968500E+06
        95   5  1.722186E+08  5.120329E+07  4.978061E+07  7.057949E+07  2.297431E+08  7.634558E+07
        95   6  7.143700E+07  1.027747E+07  3.457866E+07  4.665989E+07 -1.586189E+07 -5.880549E+07
        95   7  9.594868E+07  2.107319E+07  1.614218E+06  9.185715E+07  2.711328E+08  9.512906E+07
        95   8 -1.157749E+07 -1.997258E+07 -1.032703E+07  7.063073E+07 -2.315887E+07 -2.080349E+07
        96   1  2.929781E+08  3.339641E+07  3.790697E+07  7.700061E+07  7.101326E+07  6.422114E+07
        96   2  1.534502E+08 -2.195873E+07  1.081798E+07  4.614824E+07 -6.090197E+07 -2.670156E+07
        96   3  1.757173E+08 -2.349000E+07 -5.547800E+07  1.072669E+08  9.451402E+07  6.256070E+07
        96   4  2.701518E+07 -7.930981E+07 -7.764309E+07  8.026765E+07 -7.024728E+07 -6.357953E+05
        96   5  5.569396E+08  7.376799E+06  1.092895E+08  4.287567E+07  6.433023E+07  4.600479E+07
        96   6  3.904578E+08 -5.231430E+07  7.281360E+07  1.059296E+07 -6.631860E+07 -4.412795E+07
        96   7  4.158997E+08 -6.817578E+07  3.170985E+06  8.212289E+07  8.862726E+07  4.341651E+07
        96   8  2.368569E+08 -1.308720E+08 -3.015924E+07  5.489092E+07 -7.475167E+07 -1.910924E+07
        97   1 -5.533711E+08 -1.442269E+08  3.012373E+07 -2.366787E+08  2.567138E+08  1.609966E+08
        97   2 -6.567400E+08 -1.170869E+08  2.234739E+08 -2.622732E+08  5.143210E+08  2.286975E+08
        97   3 -3.454012E+08 -2.848191E+07  2.068255E+08 -2.974781E+08  3.102193E+08  2.154476E+08
        97   4 -4.649465E+08 -7.163385E+06  3.970577E+08 -3.172001E+08  6.211365E+08  2.492746E+08
        97   5 -9.575232E+08 -1.711588E+08 -9.920150E+07 -2.498739E+08  2.776945E+08  8.365351E+07
        97   6 -1.113821E+09 -1.632752E+08  7.249311E+07 -2.786017E+08  5.363787E+08  1.517795E+08
        97   7 -7.064912E+08 -2.887501E+07  9.838061E+07 -3.273862E+08  3.304361E+08  1.391072E+08
        97   8 -8.837318E+08 -2.963617E+07  2.646802E+08 -3.485940E+08  6.425161E+08  1.732625E+08
        98   1 -3.739330E+08 -1.601452E+08 -6.530972E+07 -1.828535E+08  5.470212E+08  2.796793E+08
        98   2 -2.431901E+08 -9.736795E+07  1.938046E+07 -2.259798E+08  6.466263E+08  3.531528E+08
        98   3 -4.854873E+08 -1.784908E+08 -1.228891E+07 -2.021347E+08  9.621130E+08  4.130233E+08
        98   4 -3.651214E+08 -1.184848E+08  7.294425E+07 -2.411052E+08  1.140402E+09  4.583162E+08
        98   5 -6.010946E+07 -2.825191E+06  7.603335E+07 -4.899546E+07  5.354461E+08  3.115395E+08
        98   6 -1.382843E+07  2.524450E+07  1.249727E+08 -6.055112E+07  6.344857E+08  3.857553E+08
        98   7 -5.114924E+07  3.111023E+07  1.808928E+08 -5.416184E+07  9.513353E+08  4.451983E+08
        98   8 -5.753486E+06  6.033258E+07  2.343998E+08 -6.460394E+07  1.129122E+09  4.911619E+08
        99   1  6.010946E+07  2.825191E+06 -7.603335E+07  4.899546E+07  5.354461E+08  3.115395E+08
        99   2  1.382843E+07 -2.524450E+07 -1.249727E+08  6.055112E+07  6.344857E+08  3.857553E+08
        99   3  5.114924E+07 -3.111023E+07 -1.808928E+08  5.416184E+07  9.513353E+08  4.451983E+08
        99   4  5.753486E+06 -6.033258E+07 -2.343998E+08  6.460394E+07  1.129122E+09  4.911619E+08
        99   5  3.739330E+08  1.601452E+08  6.530972E+07  1.828535E+08  5.470212E+08  2.796793E+08
        99   6  2.431901E+08  9.736795E+07 -1.938046E+07  2.259798E+08  6.466263E+08  3.531528E+08
        99   7  4.854873E+08  1.784908E+08  1.228891E+07  2.021347E+08  9.621130E+08  4.130233E+08
        99   8  3.651214E+08  1.184848E+08 -7.294425E+07  2.411052E+08  1.140402E+09  4.583162E+08
       100   1  5.533711E+08  1.442269E+08 -3.012373E+07  2.366787E+08  2.567138E+08  1.609966E+08
       100   2  3.454012E+08  2.848191E+07 -2.068255E+08  2.974781E+08  3.102193E+08  2.154476E+08
       100   3  6.567400E+08  1.170869E+08 -2.234739E+08  2.622732E+08  5.143210E+08  2.286975E+08
       100   4  4.649465E+08  7.163385E+06 -3.970577E+08  3.172001E+08  6.211365E+08  2.492746E+08
       100   5  9.575232E+08  1.711588E+08  9.920150E+07  2.498739E+08  2.776945E+08  8.365351E+07
       100   6  7.064912E+08  2.887501E+07 -9.838061E+07  3.273863E+08  3.304361E+08  1.391072E+08
       100   7  1.113821E+09  1.632752E+08 -7.249311E+07  2.786017E+08  5.363787E+08  1.517795E+08
       100   8  8.837318E+08  2.963617E+07 -2.646802E+08  3.485940E+08  6.425161E+08  1.732625E+08
       101   1 -5.717073E+08 -9.995768E+07 -5.808338E+07 -1.735005E+08  1.261159E+08  6.217014E+07
       101   2 -3.999782E+08 -3.346787E+05  9.766502E+07 -2.211985E+08  1.985849E+08  6.803429E+07
       101   3 -3.540624E+08 -2.273832E+07 -1.564661E+07 -1.466915E+08 -8.615966E+07  1.206041E+07
       101   4 -1.679458E+08  7.967353E+07  1.344076E+08 -2.006537E+08 -6.000507E+07  4.851758E+07
       101   5 -9.827391E+08 -1.087957E+08 -1.840444E+08 -1.692689E+08  1.072746E+08  3.650735E+07
       101   6 -7.800766E+08  9.684895E+06 -1.335861E+07 -2.288216E+08  1.803124E+08  4.163634E+07
       101   7 -7.133212E+08 -1.265590E+07 -1.203995E+08 -1.393250E+08 -1.039142E+08 -1.317339E+07
       101   8 -4.913949E+08  1.114375E+08  4.690201E+07 -2.067401E+08 -7.709959E+07  2.245225E+07
       102   1 -3.695908E+08 -1.136369E+08 -9.660671E+07 -1.380571E+08  3.262032E+08  1.107606E+08
       102   2 -2.122479E+08 -5.756045E+07 -6.777298E+07 -1.178185E+08 -2.807979E+07  3.767929E+06
       102   3 -2.628447E+08 -6.027305E+07 -2.419656E+07 -1.722532E+08  4.277384E+08  1.324090E+08
       102   4 -9.159533E+07  1.154737E+06  8.735785E+06 -1.564936E+08  6.522830E+06  5.214424E+07
       102   5 -7.860665E+07 -1.002403E+07  2.177239E+07 -3.699228E+07  3.276636E+08  1.252736E+08
       102   6 -5.130968E+07 -9.861300E+06 -5.181769E+06 -3.156938E+07 -2.621802E+07  1.843929E+07
       102   7 -3.970875E+07  1.457015E+07  6.519717E+07 -4.615510E+07  4.294088E+08  1.466504E+08
       102   8 -9.394527E+06  1.545778E+07  3.768694E+07 -4.193232E+07  8.628362E+06  6.650848E+07
       103   1  7.860665E+07  1.002403E+07 -2.177239E+07  3.699228E+07  3.276636E+08  1.252736E+08
       103   2  5.130968E+07  9.861300E+06  5.181769E+06  3.156938E+07 -2.621802E+07  1.843929E+07
       103   3  3.970875E+07 -1.457015E+07 -6.519717E+07  4.615510E+07  4.294088E+08  1.466504E+08
       103   4  9.394527E+06 -1.545778E+07 -3.768694E+07  4.193232E+07  8.628362E+06  6.650848E+07
       103   5  3.695908E+08  1.136369E+08  9.660671E+07  1.380571E+08  3.262032E+08  1.107606E+08
       103   6  2.122479E+08  5.756045E+07  6.777298E+07  1.178185E+08 -2.807979E+07  3.767929E+06
       103   7  2.628446E+08  6.027305E+07  2.419656E+07  1.722532E+08  4.277384E+08  1.324090E+08
       103   8  9.159533E+07 -1.154737E+06 -8.735785E+06  1.564936E+08  6.522830E+06  5.214424E+07
       104   1  5.717073E+08  9.995768E+07  5.808338E+07  1.735005E+08  1.261159E+08  6.217014E+07
       104   2  3.540624E+08  2.273832E+07  1.564661E+07  1.466915E+08 -8.615966E+07  1.206041E+07
       104   3  3.999782E+08  3.346787E+05 -9.766502E+07  2.211985E+08  1.985849E+08  6.803429E+07
       104   4  1.679458E+08 -7.967353E+07 -1.344076E+08  2.006537E+08 -6.000507E+07  4.851758E+07
       104   5  9.827391E+08  1.087957E+08  1.840444E+08  1.692689E+08  1.072746E+08  3.650735E+07
       104   6  7.133212E+08  1.265590E+07  1.203995E+08  1.393250E+08 -1.039142E+08 -1.317339E+07
       104   7  7.800766E+08 -9.684896E+06  1.335861E+07  2.288216E+08  1.803124E+08  4.163634E+07
       104   8  4.913949E+08 -1.114375E+08 -4.690201E+07  2.067401E+08 -7.709959E+07  2.245225E+07
       105   1 -8.754613E+08 -2.168574E+08  5.744043E+07 -3.866935E+08  2.800639E+08  2.284511E+08
       105   2 -9.972321E+08 -1.880419E+08  2.523604E+08 -3.889251E+08  6.156767E+08  2.317818E+08
       105   3 -6.472707E+08 -5.343249E+07  2.760507E+08 -4.586037E+08  4.293569E+08  2.800656E+08
       105   4 -7.866084E+08 -3.372675E+07  4.679732E+08 -4.534656E+08  8.358952E+08  2.476472E+08
       105   5 -1.488610E+09 -3.194602E+08 -1.572849E+08 -4.552890E+08  2.871628E+08  1.498166E+08
       105   6 -1.702067E+09 -3.268893E+08 -7.442876E+05 -4.578659E+08  6.240451E+08  1.534096E+08
       105   7 -1.197478E+09 -1.160184E+08  9.221263E+07 -5.538658E+08  4.356926E+08  2.025532E+08
       105   8 -1.436070E+09 -1.371054E+08  2.421213E+08 -5.463343E+08  8.435939E+08  1.702849E+08
       106   1 -6.060509E+08 -2.340082E+08 -1.087722E+08 -2.851737E+08  6.579589E+08  3.773983E+08
       106   2 -4.714311E+08 -1.438499E+08 -8.693666E+06 -3.341895E+08  8.576904E+08  4.365871E+08
       106   3 -7.200803E+08 -2.452787E+08 -4.770303E+07 -2.868340E+08  1.190135E+09  4.536015E+08
       106   4 -5.985597E+08 -1.624211E+08  4.772629E+07 -3.308281E+08  1.474111E+09  4.758525E+08
       106   5 -1.018930E+08 -2.204410E+06  1.120164E+08 -7.641206E+07  6.499356E+08  4.112091E+08
       106   6 -5.203445E+07  3.574065E+07  1.710025E+08 -8.954581E+07  8.498689E+08  4.701013E+08
       106   7 -9.077965E+07  3.644307E+07  2.256037E+08 -7.685695E+07  1.181776E+09  4.873431E+08
       106   8 -4.380991E+07  7.305308E+07  2.847935E+08 -8.864513E+07  1.465929E+09  5.093271E+08
       107   1  1.018929E+08  2.204410E+06 -1.120164E+08  7.641206E+07  6.499356E+08  4.112091E+08
       107   2  5.203445E+07 -3.574065E+07 -1.710025E+08  8.954581E+07  8.498689E+08  4.701013E+08
       107   3  9.077965E+07 -3.644307E+07 -2.256037E+08  7.685695E+07  1.181776E+09  4.873431E+08
       107   4  4.380990E+07 -7.305308E+07 -2.847935E+08  8.864513E+07  1.465929E+09  5.093271E+08
       107   5  6.060509E+08  2.340082E+08  1.087722E+08  2.851737E+08  6.579589E+08  3.773983E+08
       107   6  4.714311E+08  1.438499E+08  8.693666E+06  3.341895E+08  8.576904E+08  4.365871E+08
       107   7  7.200803E+08  2.452787E+08  4.770303E+07  2.868340E+08  1.190135E+09  4.536015E+08
       107   8  5.985597E+08  1.624211E+08 -4.772628E+07  3.308281E+08  1.474111E+09  4.758525E+08
       108   1  8.754613E+08  2.168574E+08 -5.744043E+07  3.866935E+08  2.800639E+08  2.284511E+08
       108   2  6.472707E+08  5.343249E+07 -2.760507E+08  4.586037E+08  4.293569E+08  2.800656E+08
       108   3  9.972321E+08  1.880419E+08 -2.523604E+08  3.889251E+08  6.156767E+08  2.317818E+08
       108   4  7.866084E+08  3.372675E+07 -4.679732E+08  4.534656E+08  8.358952E+08  2.476472E+08
       108   5  1.488610E+09  3.194602E+08  1.572849E+08  4.552890E+08  2.871628E+08  1.498166E+08
       108   6  1.197478E+09  1.160184E+08 -9.221263E+07  5.538658E+08  4.356926E+08  2.025532E+08
       108   7  1.702067E+09  3.268893E+08  7.442893E+05  4.578659E+08  6.240451E+08  1.534096E+08
       108   8  1.436070E+09  1.371054E+08 -2.421213E+08  5.463343E+08  8.435939E+08  1.702849E+08
       109   1 -9.190949E+08 -1.941528E+08 -5.410130E+07 -3.062184E+08  1.766755E+08  4.826021E+07
       109   2 -7.095770E+08 -5.489302E+07  1.458881E+08 -3.701912E+08  3.234723E+08  5.728050E+07
       109   3 -6.324175E+08 -9.849201E+07 -4.177253E+06 -2.967990E+08 -1.085936E+08  5.458010E+07
       109   4 -4.016291E+08  4.881974E+07  1.938517E+08 -3.697670E+08 -2.407895E+07  9.510239E+07
       109   5 -1.532089E+09 -2.815680E+08 -2.642241E+08 -3.462521E+08  1.490230E+08  1.925628E+07
       109   6 -1.276604E+09 -1.158838E+08 -4.251734E+07 -4.292952E+08  2.958022E+08  2.830192E+07
       109   7 -1.150846E+09 -1.475591E+08 -1.744258E+08 -3.348721E+08 -1.362858E+08  2.556794E+07
       109   8 -8.659464E+08  3.059312E+07  4.908855E+07 -4.296060E+08 -5.179201E+07  6.611908E+07
       110   1 -6.215259E+08 -2.015037E+08 -1.537789E+08 -2.299501E+08  4.354030E+08  1.227620E+08
       110   2 -4.153282E+08 -1.297272E+08 -1.086461E+08 -2.230872E+08 -2.620288E+07  6.731143E+07
       110   3 -4.948648E+08 -1.246120E+08 -6.138057E+07 -2.748987E+08  6.208192E+08  1.404554E+08
       110   4 -2.705682E+08 -4.408568E+07 -1.030815E+07 -2.743520E+08  7.870297E+07  1.172379E+08
       110   5 -1.272052E+08 -1.466053E+07  5.057022E+07 -6.161494E+07  4.407784E+08  1.376278E+08
       110   6 -8.811300E+07 -1.158646E+07  2.496068E+07 -5.977603E+07 -2.022579E+07  8.230162E+07
       110   7 -8.003352E+07  1.917542E+07  1.062051E+08 -7.365888E+07  6.264613E+08  1.549376E+08
       110   8 -3.698505E+07  2.370075E+07  8.010271E+07 -7.351239E+07  8.499498E+07  1.317917E+08
       111   1  1.272052E+08  1.466053E+07 -5.057022E+07  6.161494E+07  4.407784E+08  1.376278E+08
       111   2  8.811300E+07  1.158646E+07 -2.496068E+07  5.977603E+07 -2.022579E+07  8.230162E+07
       111   3  8.003352E+07 -1.917542E+07 -1.062051E+08  7.365888E+07  6.264613E+08  1.549376E+08
       111   4  3.698505E+07 -2.370075E+07 -8.010271E+07  7.351239E+07  8.499498E+07  1.317917E+08
       111   5  6.215259E+08  2.015037E+08  1.537789E+08  2.299501E+08  4.354030E+08  1.227620E+08
       111   6  4.153282E+08  1.297272E+08  1.086461E+08  2.230872E+08 -2.620288E+07  6.731143E+07
       111   7  4.948648E+08  1.246120E+08  6.138057E+07  2.748987E+08  6.208192E+08  1.404554E+08
       111   8  2.705682E+08  4.408568E+07  1.030815E+07  2.743520E+08  7.870297E+07  1.172379E+08
       112   1  9.190949E+08  1.941528E+08  5.410130E+07  3.062184E+08  1.766755E+08  4.826021E+07
       112   2  6.324175E+08  9.849201E+07  4.177253E+06  2.967990E+08 -1.085936E+08  5.458010E+07
       112   3  7.095770E+08  5.489302E+07 -1.458881E+08  3.701912E+08  3.234723E+08  5.728050E+07
       112   4  4.016291E+08 -4.881974E+07 -1.938517E+08  3.697670E+08 -2.407895E+07  9.510239E+07
       112   5  1.532089E+09  2.815680E+08  2.642241E+08  3.462521E+08  1.490230E+08  1.925628E+07
       112   6  1.150846E+09  1.475591E+08  1.744258E+08  3.348721E+08 -1.362858E+08  2.556794E+07
       112   7  1.276604E+09  1.158838E+08  4.251734E+07  4.292952E+08  2.958022E+08  2.830192E+07
       112   8  8.659464E+08 -3.059312E+07 -4.908855E+07  4.296060E+08 -5.179201E+07  6.611908E+07
       113   1 -1.295442E+09 -2.779257E+08  9.622365E+07 -5.523614E+08  2.868894E+08  2.771381E+08
       113   2 -1.387306E+09 -2.391099E+08  3.089342E+08 -5.324633E+08  6.503910E+08  2.138580E+08
       113   3 -1.079253E+09 -8.940525E+07  3.404628E+08 -6.190389E+08  5.807004E+08  2.806415E+08
       113   4 -1.191589E+09 -6.612616E+07  5.395863E+08 -5.917477E+08  1.025569E+09  1.897082E+08
       113   5 -2.156955E+09 -4.686200E+08 -2.194386E+08 -7.028411E+08  2.787017E+08  2.005949E+08
       113   6 -2.374129E+09 -4.826588E+08 -6.017732E+07 -6.776553E+08  6.473522E+08  1.375385E+08
       113   7 -1.867086E+09 -2.318117E+08  6.139092E+07 -8.037410E+08  5.698552E+08  2.084960E+08
       113   8 -2.114478E+09 -2.673278E+08  2.023592E+08 -7.674427E+08  1.020234E+09  1.173221E+08
       114   1 -9.144386E+08 -3.055979E+08 -1.630451E+08 -3.921939E+08  7.586510E+08  4.326040E+08
       114   2 -7.972505E+08 -2.029009E+08 -5.575385E+07 -4.349017E+08  1.101787E+09  4.241602E+08
       114   3 -9.966289E+08 -3.056401E+08 -8.698656E+07 -3.780273E+08  1.333679E+09  4.379238E+08
       114   4 -8.914117E+08 -2.121200E+08  1.412451E+07 -4.159780E+08  1.753728E+09  3.949336E+08
       114   5 -1.593031E+08  3.835274E+06  1.563255E+08 -1.050880E+08  7.567343E+08  4.660877E+08
       114   6 -1.104493E+08  4.880624E+07  2.257987E+08 -1.165316E+08  1.100465E+09  4.566598E+08
       114   7 -1.387846E+08  4.636525E+07  2.759683E+08 -1.012921E+08  1.330610E+09  4.713575E+08
       114   8 -9.306906E+07  8.894661E+07  3.439473E+08 -1.114610E+08  1.751173E+09  4.274871E+08
       115   1  1.593031E+08 -3.835274E+06 -1.563255E+08  1.050880E+08  7.567343E+08  4.660877E+08
       115   2  1.104493E+08 -4.880624E+07 -2.257987E+08  1.165316E+08  1.100465E+09  4.566598E+08
       115   3  1.387846E+08 -4.636525E+07 -2.759683E+08  1.012921E+08  1.330610E+09  4.713575E+08
       115   4  9.306906E+07 -8.894661E+07 -3.439473E+08  1.114610E+08  1.751173E+09  4.274871E+08
       115   5  9.144385E+08  3.055979E+08  1.630451E+08  3.921939E+08  7.586510E+08  4.326040E+08
       115   6  7.972505E+08  2.029009E+08  5.575385E+07  4.349017E+08  1.101787E+09  4.241602E+08
       115   7  9.966288E+08  3.056401E+08  8.698656E+07  3.780273E+08  1.333679E+09  4.379238E+08
       115   8  8.914117E+08  2.121200E+08 -1.412451E+07  4.159780E+08  1.753728E+09  3.949336E+08
       116   1  1.295442E+09  2.779257E+08 -9.622365E+07  5.523614E+08  2.868894E+08  2.771381E+08
       116   2  1.079253E+09  8.940525E+07 -3.404628E+08  6.190389E+08  5.807004E+08  2.806415E+08
       116   3  1.387306E+09  2.391099E+08 -3.089342E+08  5.324633E+08  6.503910E+08  2.138580E+08
       116   4  1.191589E+09  6.612616E+07 -5.395863E+08  5.917477E+08  1.025569E+09  1.897082E+08
       116   5  2.156955E+09  4.686200E+08  2.194386E+08  7.028411E+08  2.787017E+08  2.005949E+08
       116   6  1.867086E+09  2.318117E+08 -6.139092E+07  8.037410E+08  5.698552E+08  2.084960E+08
       116   7  2.374129E+09  4.826588E+08  6.017732E+07  6.776553E+08  6.473522E+08  1.375385E+08
       116   8  2.114478E+09  2.673278E+08 -2.023592E+08  7.674427E+08  1.020234E+09  1.173221E+08
       117   1 -1.351224E+09 -2.923794E+08 -3.958772E+07 -4.680741E+08  2.094769E+08  3.921001E+07
       117   2 -1.116569E+09 -1.207012E+08  2.007785E+08 -5.436507E+08  4.617154E+08  3.517054E+07
       117   3 -1.007966E+09 -1.755229E+08  1.359528E+07 -4.815800E+08 -1.178077E+08  1.027745E+08
       117   4 -7.484331E+08  6.727026E+06  2.498992E+08 -5.687729E+08  5.774074E+07  1.225615E+08
       117   5 -2.209181E+09 -4.794782E+08 -3.531042E+08 -5.761246E+08  1.706601E+08  9.248388E+06
       117   6 -1.914709E+09 -2.778646E+08 -8.581245E+07 -6.790498E+08  4.231247E+08  4.845817E+06
       117   7 -1.714596E+09 -2.980735E+08 -2.351590E+08 -5.902173E+08 -1.560294E+08  7.283868E+07
       117   8 -1.383029E+09 -8.001416E+07  3.349812E+07 -7.088699E+08  1.979175E+07  9.220874E+07
       118   1 -9.375657E+08 -2.961408E+08 -2.196889E+08 -3.379669E+08  5.433446E+08  1.243062E+08
       118   2 -6.966272E+08 -2.087091E+08 -1.639991E+08 -3.484493E+08  1.028754E+07  1.296640E+08
       118   3 -8.008268E+08 -2.004446E+08 -1.103653E+08 -3.896774E+08  8.411843E+08  1.156539E+08
       118   4 -5.397440E+08 -1.023200E+08 -4.999386E+07 -4.081345E+08  2.204879E+08  1.519593E+08
       118   5 -1.876907E+08 -1.582147E+07  8.936941E+07 -9.055797E+07  5.533957E+08  1.390125E+08
       118   6 -1.412165E+08 -1.047920E+07  6.209314E+07 -9.336670E+07  2.018151E+07  1.443634E+08
       118   7 -1.343300E+08  2.654187E+07  1.576797E+08 -1.044138E+08  8.511757E+08  1.304561E+08
       118   8 -8.438801E+07  3.281940E+07  1.271548E+08 -1.093593E+08  2.303098E+08  1.667690E+08
       119   1  1.876907E+08  1.582147E+07 -8.936941E+07  9.055797E+07  5.533957E+08  1.390125E+08
       119   2  1.412165E+08  1.047920E+07 -6.209314E+07  9.336670E+07  2.018151E+07  1.443634E+08
       119   3  1.343300E+08 -2.654187E+07 -1.576797E+08  1.044138E+08  8.511757E+08  1.304561E+08
       119   4  8.438801E+07 -3.281940E+07 -1.271548E+08  1.093593E+08  2.303098E+08  1.667690E+08
       119   5  9.375657E+08  2.961408E+08  2.196889E+08  3.379669E+08  5.433446E+08  1.243062E+08
       119   6  6.966272E+08  2.087091E+08  1.639991E+08  3.484493E+08  1.028754E+07  1.296640E+08
       119   7  8.008268E+08  2.004446E+08  1.103653E+08  3.896774E+08  8.411843E+08  1.156539E+08
       119   8  5.397440E+08  1.023200E+08  4.999386E+07  4.081345E+08  2.204879E+08  1.519593E+08
       120   1  1.351224E+09  2.923794E+08  3.958772E+07  4.680741E+08  2.094769E+08  3.921001E+07
       120   2  1.007966E+09  1.755229E+08 -1.359528E+07  4.815800E+08 -1.178077E+08  1.027745E+08
       120   3  1.116569E+09  1.207012E+08 -2.007785E+08  5.436507E+08  4.617154E+08  3.517054E+07
       120   4  7.484331E+08 -6.727026E+06 -2.498992E+08  5.687729E+08  5.774074E+07  1.225615E+08
       120   5  2.209181E+09  4.794782E+08  3.531042E+08  5.761246E+08  1.706601E+08  9.248388E+06
       120   6  1.714596E+09  2.980735E+08  2.351590E+08  5.902173E+08 -1.560294E+08  7.283868E+07
       120   7  1.914709E+09  2.778646E+08  8.581245E+07  6.790498E+08  4.231247E+08  4.845817E+06
       120   8  1.383029E+09  8.001416E+07 -3.349812E+07  7.088699E+08  1.979175E+07  9.220874E+07
       121   1 -1.813223E+09 -3.189801E+08  1.473871E+08 -7.015808E+08  2.796766E+08  2.853471E+08
       121   2 -1.785324E+09 -2.419821E+08  3.964181E+08 -6.765013E+08  5.843739E+08  1.970146E+08
       121   3 -1.662847E+09 -1.553491E+08  3.810065E+08 -7.340202E+08  7.617234E+08  1.725132E+08
       121   4 -1.655932E+09 -9.989192E+07  5.974462E+08 -7.048892E+08  1.146935E+09  7.938588E+07
       121   5 -2.954707E+09 -5.896243E+08 -2.762512E+08 -9.538531E+08  2.547930E+08  2.195767E+08
       121   6 -3.069547E+09 -5.760729E+08 -8.907602E+07 -9.169553E+08  5.726369E+08  1.298624E+08
       121   7 -2.731655E+09 -3.767470E+08 -6.055199E+06 -1.023523E+09  7.309723E+08  1.177474E+08
       121   8 -2.878160E+09 -3.913570E+08  1.433385E+08 -9.782379E+08  1.130223E+09  2.199595E+07
       122   1 -1.298367E+09 -3.712840E+08 -2.230936E+08 -4.804946E+08  8.405572E+08  4.097507E+08
       122   2 -1.235207E+09 -2.909077E+08 -1.298074E+08 -4.953313E+08  1.365300E+09  2.577803E+08
       122   3 -1.277191E+09 -3.342755E+08 -1.069107E+08 -4.641267E+08  1.335607E+09  3.778815E+08
       122   4 -1.221981E+09 -2.634589E+08 -2.495520E+07 -4.770196E+08  1.909583E+09  2.129680E+08
       122   5 -2.305704E+08  1.784067E+07  2.139827E+08 -1.287481E+08  8.459085E+08  4.402211E+08
       122   6 -1.924348E+08  6.058951E+07  2.884735E+08 -1.327236E+08  1.372496E+09  2.847902E+08
       122   7 -1.832001E+08  6.945345E+07  3.424054E+08 -1.243624E+08  1.336824E+09  4.087864E+08
       122   8 -1.497615E+08  1.070738E+08  4.078706E+08 -1.278170E+08  1.912365E+09  2.408031E+08
       123   1  2.305704E+08 -1.784067E+07 -2.139827E+08  1.287481E+08  8.459085E+08  4.402211E+08
       123   2  1.924348E+08 -6.058951E+07 -2.884735E+08  1.327236E+08  1.372496E+09  2.847902E+08
       123   3  1.832001E+08 -6.945345E+07 -3.424054E+08  1.243624E+08  1.336824E+09  4.087864E+08
       123   4  1.497615E+08 -1.070738E+08 -4.078706E+08  1.278170E+08  1.912365E+09  2.408031E+08
       123   5  1.298367E+09  3.712840E+08  2.230936E+08  4.804946E+08  8.405572E+08  4.097507E+08
       123   6  1.235207E+09  2.909077E+08  1.298074E+08  4.953313E+08  1.365300E+09  2.577803E+08
       123   7  1.277191E+09  3.342755E+08  1.069107E+08  4.641267E+08  1.335607E+09  3.778815E+08
       123   8  1.221981E+09  2.634589E+08  2.495520E+07  4.770196E+08  1.909583E+09  2.129680E+08
       124   1  1.813223E+09  3.189801E+08 -1.473871E+08  7.015808E+08  2.796766E+08  2.853471E+08
       124   2  1.662847E+09  1.553491E+08 -3.810065E+08  7.340202E+08  7.617234E+08  1.725132E+08
       124   3  1.785324E+09  2.419821E+08 -3.964181E+08  6.765013E+08  5.843739E+08  1.970146E+08
       124   4  1.655932E+09  9.989192E+07 -5.974462E+08  7.048892E+08  1.146935E+09  7.938588E+07
       124   5  2.954707E+09  5.896243E+08  2.762512E+08  9.538531E+08  2.547930E+08  2.195767E+08
       124   6  2.731655E+09  3.767470E+08  6.055200E+06  1.023523E+09  7.309723E+08  1.177474E+08
       124   7  3.069547E+09  5.760729E+08  8.907602E+07  9.169553E+08  5.726369E+08  1.298624E+08
       124   8  2.878160E+09  3.913570E+08 -1.433385E+08  9.782379E+08  1.130223E+09  2.199595E+07
       125   1 -1.865213E+09 -3.713171E+08 -3.906828E+06 -6.431468E+08  2.178347E+08  5.336746E+07
       125   2 -1.628115E+09 -1.852109E+08  2.643865E+08 -7.204268E+08  6.044216E+08  8.523128E+06
       125   3 -1.511448E+09 -2.493215E+08  2.854864E+07 -6.780043E+08 -9.840404E+07  1.404989E+08
       125   4 -1.247050E+09 -5.014582E+07  2.943503E+08 -7.684535E+08  2.032353E+08  1.002044E+08
       125   5 -2.998788E+09 -6.601531E+08 -4.306300E+08 -8.428995E+08  1.675524E+08  2.399032E+07
       125   6 -2.693070E+09 -4.447760E+08 -1.329696E+08 -9.555597E+08  5.537940E+08 -2.023103E+07
       125   7 -2.435487E+09 -4.483812E+08 -3.083812E+08 -8.839682E+08 -1.497398E+08  1.112325E+08
       125   8 -2.086037E+09 -2.129144E+08 -6.176479E+06 -1.015568E+09  1.514716E+08  7.166263E+07
       126   1 -1.318833E+09 -3.844898E+08 -2.882790E+08 -4.495702E+08  6.391029E+08  1.222462E+08
       126   2 -1.080004E+09 -2.938800E+08 -2.412109E+08 -4.752685E+08  1.027493E+08  1.656825E+08
       126   3 -1.187253E+09 -2.817670E+08 -1.682384E+08 -5.003057E+08  1.077173E+09  5.157352E+07
       126   4 -9.292491E+08 -1.804884E+08 -1.195947E+08 -5.347244E+08  4.567518E+08  1.126871E+08
       126   5 -2.593183E+08 -8.961707E+06  1.422339E+08 -1.204620E+08  6.544073E+08  1.369085E+08
       126   6 -2.171858E+08 -6.544620E+06  1.038350E+08 -1.273478E+08  1.169654E+08  1.804591E+08
       126   7 -2.030504E+08  3.957397E+07  2.234248E+08 -1.340565E+08  1.092121E+09  6.687939E+07
       126   8 -1.588959E+08  4.173397E+07  1.781780E+08 -1.432790E+08  4.705258E+08  1.282124E+08
       127   1  2.593183E+08  8.961707E+06 -1.422339E+08  1.204620E+08  6.544073E+08  1.369085E+08
       127   2  2.171858E+08  6.544620E+06 -1.038350E+08  1.273478E+08  1.169654E+08  1.804591E+08
       127   3  2.030504E+08 -3.957397E+07 -2.234248E+08  1.340565E+08  1.092121E+09  6.687939E+07
       127   4  1.588959E+08 -4.173397E+07 -1.781780E+08  1.432790E+08  4.705258E+08  1.282124E+08
       127   5  1.318833E+09  3.844898E+08  2.882790E+08  4.495702E+08  6.391029E+08  1.222462E+08
       127   6  1.080004E+09  2.938800E+08  2.412109E+08  4.752685E+08  1.027493E+08  1.656825E+08
       127   7  1.187253E+09  2.817670E+08  1.682384E+08  5.003057E+08  1.077173E+09  5.157352E+07
       127   8  9.292491E+08  1.804884E+08  1.195947E+08  5.347244E+08  4.567518E+08  1.126871E+08
       128   1  1.865213E+09  3.713171E+08  3.906827E+06  6.431468E+08  2.178347E+08  5.336746E+07
       128   2  1.511448E+09  2.493215E+08 -2.854864E+07  6.780043E+08 -9.840404E+07  1.404989E+08
       128   3  1.628115E+09  1.852109E+08 -2.643865E+08  7.204268E+08  6.044216E+08  8.523128E+06
       128   4  1.247050E+09  5.014582E+07 -2.943503E+08  7.684535E+08  2.032353E+08  1.002044E+08
       128   5  2.998788E+09  6.601531E+08  4.306300E+08  8.428995E+08  1.675524E+08  2.399032E+07
       128   6  2.435487E+09  4.483812E+08  3.083812E+08  8.839682E+08 -1.497398E+08  1.112325E+08
       128   7  2.693070E+09  4.447760E+08  1.329696E+08  9.555597E+08  5.537940E+08 -2.023103E+07
       128   8  2.086037E+09  2.129144E+08  6.176480E+06  1.015568E+09  1.514716E+08  7.166263E+07
       129   1 -2.388773E+09 -3.403539E+08  2.097631E+08 -7.939326E+08  2.527715E+08  2.240652E+08
       129   2 -2.114480E+09 -1.681604E+08  5.166239E+08 -8.029035E+08  3.903015E+08  2.067279E+08
       129   3 -2.372212E+09 -2.793210E+08  3.723915E+08 -7.535274E+08  9.489719E+08 -8.445434E+07
       129   4 -2.114421E+09 -1.309855E+08  6.191862E+08 -7.673625E+08  1.147565E+09 -6.480582E+07
       129   5 -3.826448E+09 -6.605234E+08 -3.175903E+08 -1.156094E+09  2.142694E+08  1.814718E+08
       129   6 -3.668404E+09 -5.432823E+08 -6.208983E+07 -1.149783E+09  3.776289E+08  1.577876E+08
       129   7 -3.756832E+09 -5.594091E+08 -1.270211E+08 -1.145462E+09  9.004729E+08 -1.055962E+08
       129   8 -3.623945E+09 -4.718510E+08  6.406928E+07 -1.140243E+09  1.126612E+09 -9.491136E+07
       130   1 -1.725796E+09 -4.328544E+08 -2.816497E+08 -5.216079E+08  8.828478E+08  2.690657E+08
       130   2 -1.760665E+09 -4.289050E+08 -2.375566E+08 -4.811465E+08  1.604080E+09 -1.095042E+08
       130   3 -1.506483E+09 -3.117604E+08 -9.614932E+07 -5.330945E+08  1.138618E+09  2.979915E+08
       130   4 -1.541154E+09 -3.142313E+08 -7.317452E+07 -4.975582E+08  1.856804E+09 -4.449727E+07
       130   5 -3.078733E+08  3.856927E+07  2.851541E+08 -1.397644E+08  8.948757E+08  2.912104E+08
       130   6 -2.946768E+08  6.216721E+07  3.495615E+08 -1.289228E+08  1.620013E+09 -9.573997E+07
       130   7 -2.138949E+08  1.062301E+08  4.170243E+08 -1.428422E+08  1.140555E+09  3.226158E+08
       130   8 -2.087760E+08  1.199771E+08  4.568015E+08 -1.333203E+08  1.861976E+09 -2.723120E+07
       131   1  3.078733E+08 -3.856927E+07 -2.851541E+08  1.397644E+08  8.948757E+08  2.912104E+08
       131   2  2.946768E+08 -6.216721E+07 -3.495615E+08  1.289228E+08  1.620013E+09 -9.573997E+07
       131   3  2.138949E+08 -1.062301E+08 -4.170243E+08  1.428422E+08  1.140555E+09  3.226158E+08
       131   4  2.087760E+08 -1.199771E+08 -4.568015E+08  1.333203E+08  1.861976E+09 -2.723120E+07
       131   5  1.725796E+09  4.328544E+08  2.816497E+08  5.216079E+08  8.828478E+08  2.690657E+08
       131   6  1.760665E+09  4.289050E+08  2.375566E+08  4.811465E+08  1.604080E+09 -1.095042E+08
       131   7  1.506483E+09  3.117604E+08  9.614932E+07  5.330945E+08  1.138618E+09  2.979915E+08
       131   8  1.541154E+09  3.142313E+08  7.317452E+07  4.975582E+08  1.856804E+09 -4.449727E+07
       132   1  2.388773E+09  3.403539E+08 -2.097631E+08  7.939326E+08  2.527715E+08  2.240652E+08
       132   2  2.372212E+09  2.793210E+08 -3.723915E+08  7.535274E+08  9.489719E+08 -8.445434E+07
       132   3  2.114480E+09  1.681604E+08 -5.166239E+08  8.029035E+08  3.903015E+08  2.067279E+08
       132   4  2.114421E+09  1.309855E+08 -6.191862E+08  7.673624E+08  1.147565E+09 -6.480582E+07
       132   5  3.826448E+09  6.605234E+08  3.175903E+08  1.156094E+09  2.142694E+08  1.814718E+08
       132   6  3.756832E+09  5.594091E+08  1.270211E+08  1.145462E+09  9.004729E+08 -1.055962E+08
       132   7  3.668404E+09  5.432823E+08  6.208984E+07  1.149783E+09  3.776289E+08  1.577876E+08
       132   8  3.623945E+09  4.718510E+08 -6.406927E+07  1.140243E+09  1.126612E+09 -9.491136E+07
       133   1 -2.423806E+09 -4.033740E+08  6.943389E+07 -8.102260E+08  1.916169E+08  1.100317E+08
       133   2 -2.231405E+09 -2.414494E+08  3.327496E+08 -8.658922E+08  7.372457E+08 -1.685199E+07
       133   3 -2.184966E+09 -3.321522E+08  3.234607E+07 -8.485729E+08 -3.374332E+07  1.415932E+08
       133   4 -1.965232E+09 -1.533594E+08  3.092335E+08 -9.148567E+08  4.301850E+08 -1.608587E+07
       133   5 -3.852789E+09 -7.737080E+08 -4.703612E+08 -1.121660E+09  1.315219E+08  8.563129E+07
       133   6 -3.590130E+09 -5.850406E+08 -1.779453E+08 -1.218773E+09  6.738871E+08 -3.458807E+07
       133   7 -3.360723E+09 -5.953894E+08 -3.993520E+08 -1.175803E+09 -1.053460E+08  1.200204E+08
       133   8 -3.050831E+09 -3.819397E+08 -8.502031E+07 -1.291034E+09  3.544026E+08 -2.977909E+07
       134   1 -1.736568E+09 -4.487095E+08 -3.435446E+08 -5.491017E+08  7.071388E+08  1.224440E+08
       134   2 -1.598967E+09 -4.011197E+08 -3.518847E+08 -5.747853E+08  2.753142E+08  1.328710E+08
       134   3 -1.642883E+09 -3.664984E+08 -2.324159E+08 -5.810396E+08  1.305130E+09 -5.959208E+07
       134   4 -1.492851E+09 -3.112717E+08 -2.403522E+08 -6.129317E+08  8.138726E+08 -6.481062E+07
       134   5 -3.335266E+08  1.155413E+07  2.154469E+08 -1.471314E+08  7.268704E+08  1.368311E+08
       134   6 -3.236426E+08 -2.680467E+06  1.502443E+08 -1.540133E+08  2.955944E+08  1.471234E+08
       134   7 -2.837761E+08  5.823002E+07  3.027346E+08 -1.556891E+08  1.325017E+09 -4.552263E+07
       134   8 -2.729335E+08  4.366964E+07  2.321053E+08 -1.642346E+08  8.343520E+08 -5.093391E+07
       135   1  3.335266E+08 -1.155413E+07 -2.154469E+08  1.471314E+08  7.268704E+08  1.368311E+08
       135   2  3.236426E+08  2.680467E+06 -1.502443E+08  1.540133E+08  2.955944E+08  1.471234E+08
       135   3  2.837761E+08 -5.823002E+07 -3.027346E+08  1.556891E+08  1.325017E+09 -4.552263E+07
       135   4  2.729335E+08 -4.366964E+07 -2.321053E+08  1.642346E+08  8.343520E+08 -5.093391E+07
       135   5  1.736568E+09  4.487095E+08  3.435446E+08  5.491017E+08  7.071388E+08  1.224440E+08
       135   6  1.598967E+09  4.011197E+08  3.518847E+08  5.747853E+08  2.753142E+08  1.328710E+08
       135   7  1.642883E+09  3.664984E+08  2.324159E+08  5.810396E+08  1.305130E+09 -5.959208E+07
       135   8  1.492851E+09  3.112717E+08  2.403522E+08  6.129317E+08  8.138726E+08 -6.481062E+07
       136   1  2.423806E+09  4.033740E+08 -6.943389E+07  8.102260E+08  1.916169E+08  1.100317E+08
       136   2  2.184966E+09  3.321522E+08 -3.234607E+07  8.485729E+08 -3.374332E+07  1.415932E+08
       136   3  2.231405E+09  2.414494E+08 -3.327496E+08  8.658922E+08  7.372457E+08 -1.685199E+07
       136   4  1.965232E+09  1.533594E+08 -3.092335E+08  9.148567E+08  4.301850E+08 -1.608587E+07
       136   5  3.852789E+09  7.737080E+08  4.703612E+08  1.121660E+09  1.315219E+08  8.563129E+07
       136   6  3.360723E+09  5.953894E+08  3.993520E+08  1.175803E+09 -1.053460E+08  1.200204E+08
       136   7  3.590130E+09  5.850406E+08  1.779453E+08  1.218773E+09  6.738871E+08 -3.458807E+07
       136   8  3.050831E+09  3.819397E+08  8.502031E+07  1.291034E+09  3.544026E+08 -2.977909E+07
       137   1 -2.904479E+09 -3.296024E+08  2.836901E+08 -7.952640E+08  1.913765E+08  7.772318E+07
       137   2 -2.302160E+09 -2.162491E+07  6.354822E+08 -8.767327E+08  8.017039E+07  2.624995E+08
       137   3 -3.058834E+09 -4.160652E+08  3.072240E+08 -6.583901E+08  1.088058E+09 -4.782761E+08
       137   4 -2.462521E+09 -1.296273E+08  5.723434E+08 -7.584750E+08  9.906061E+08 -2.026257E+08
       137   5 -4.639006E+09 -6.524925E+08 -3.335349E+08 -1.246088E+09  1.559717E+08  6.829923E+07
       137   6 -4.034666E+09 -3.567304E+08  1.519901E+07 -1.316597E+09  8.277788E+07  2.384924E+08
       137   7 -4.781425E+09 -7.054337E+08 -2.963638E+08 -1.111097E+09  1.039919E+09 -4.560331E+08
       137   8 -4.184488E+09 -4.355785E+08 -3.603202E+07 -1.199722E+09  9.829659E+08 -1.991671E+08
       138   1 -2.100764E+09 -4.775272E+08 -3.232558E+08 -4.970631E+08  8.376665E+08 -2.106270E+06
       138   2 -2.251584E+09 -5.810336E+08 -3.684549E+08 -3.885707E+08  1.717072E+09 -6.491556E+08
       138   3 -1.634210E+09 -2.390033E+08 -6.334858E+07 -5.644794E+08  7.234847E+08  2.343201E+08
       138   4 -1.767394E+09 -3.362673E+08 -1.251434E+08 -4.708135E+08  1.533735E+09 -3.069043E+08
       138   5 -3.727486E+08  6.219646E+07  3.570660E+08 -1.331877E+08  8.459887E+08  8.844665E+06
       138   6 -4.000265E+08  4.759610E+07  3.756011E+08 -1.041172E+08  1.729196E+09 -6.476598E+08
       138   7 -2.273015E+08  1.465430E+08  4.743879E+08 -1.512518E+08  7.204573E+08  2.496253E+08
       138   8 -2.598883E+08  1.235810E+08  4.650628E+08 -1.261541E+08  1.533768E+09 -2.997999E+08
       139   1  3.727486E+08 -6.219646E+07 -3.570660E+08  1.331877E+08  8.459887E+08  8.844665E+06
       139   2  4.000265E+08 -4.759610E+07 -3.756011E+08  1.041172E+08  1.729196E+09 -6.476598E+08
       139   3  2.273015E+08 -1.465430E+08 -4.743879E+08  1.512518E+08  7.204573E+08  2.496253E+08
       139   4  2.598883E+08 -1.235810E+08 -4.650628E+08  1.261541E+08  1.533768E+09 -2.997999E+08
       139   5  2.100764E+09  4.775272E+08  3.232558E+08  4.970631E+08  8.376665E+08 -2.106269E+06
       139   6  2.251584E+09  5.810336E+08  3.684549E+08  3.885707E+08  1.717072E+09 -6.491556E+08
       139   7  1.634210E+09  2.390033E+08  6.334858E+07  5.644794E+08  7.234847E+08  2.343201E+08
       139   8  1.767394E+09  3.362673E+08  1.251434E+08  4.708135E+08  1.533735E+09 -3.069043E+08
       140   1  2.904479E+09  3.296024E+08 -2.836901E+08  7.952640E+08  1.913765E+08  7.772318E+07
       140   2  3.058834E+09  4.160652E+08 -3.072240E+08  6.583901E+08  1.088058E+09 -4.782761E+08
       140   3  2.302160E+09  2.162491E+07 -6.354822E+08  8.767327E+08  8.017040E+07  2.624995E+08
       140   4  2.462521E+09  1.296273E+08 -5.723434E+08  7.584750E+08  9.906061E+08 -2.026257E+08
       140   5  4.639006E+09  6.524925E+08  3.335349E+08  1.246088E+09  1.559717E+08  6.829923E+07
       140   6  4.781425E+09  7.054337E+08  2.963638E+08  1.111097E+09  1.039919E+09 -4.560331E+08
       140   7  4.034666E+09  3.567304E+08 -1.519901E+07  1.316597E+09  8.277788E+07  2.384924E+08
       140   8  4.184488E+09  4.355785E+08  3.603202E+07  1.199722E+09  9.829659E+08 -1.991671E+08
       141   1 -2.937349E+09 -3.490190E+08  1.984581E+08 -9.400298E+08  1.203691E+08  2.241635E+08
       141   2 -2.874242E+09 -2.741939E+08  3.826973E+08 -9.270077E+08  8.449803E+08 -4.440273E+07
       141   3 -3.081584E+09 -4.470687E+08  1.447250E+07 -9.316494E+08  9.803115E+07  6.498112E+07
       141   4 -2.995976E+09 -3.459042E+08  2.635811E+08 -9.159556E+08  7.649451E+08 -2.884566E+08
       141   5 -4.678812E+09 -7.575994E+08 -4.465548E+08 -1.370186E+09  6.038484E+07  2.146404E+08
       141   6 -4.550505E+09 -6.449766E+08 -2.314163E+08 -1.398692E+09  7.744775E+08 -2.936224E+07
       141   7 -4.574644E+09 -7.425847E+08 -5.221002E+08 -1.394680E+09 -4.873517E+06  7.192409E+07
       141   8 -4.402800E+09 -5.925756E+08 -2.324676E+08 -1.429263E+09  6.480227E+08 -2.518858E+08
       142   1 -2.117400E+09 -4.608179E+08 -3.654539E+08 -6.172027E+08  7.139939E+08  1.306550E+08
       142   2 -2.290853E+09 -5.587771E+08 -5.138417E+08 -6.011033E+08  5.524803E+08 -3.215724E+07
       142   3 -2.125836E+09 -4.521024E+08 -3.209695E+08 -5.949445E+08  1.472106E+09 -2.272728E+08
       142   4 -2.303205E+09 -5.480669E+08 -4.573503E+08 -5.742124E+08  1.314866E+09 -4.700810E+08
       142   5 -3.950373E+08  4.884251E+07  3.041530E+08 -1.653790E+08  7.277882E+08  1.449380E+08
       142   6 -4.697953E+08 -5.686952E+06  1.984027E+08 -1.610651E+08  5.770865E+08 -2.202209E+07
       142   7 -3.785458E+08  6.992992E+07  3.598274E+08 -1.594149E+08  1.488550E+09 -2.191774E+08
       142   8 -4.490386E+08  2.124927E+07  2.696945E+08 -1.538598E+08  1.343003E+09 -4.674093E+08
       143   1  3.950373E+08 -4.884251E+07 -3.041530E+08  1.653790E+08  7.277882E+08  1.449380E+08
       143   2  4.697953E+08  5.686952E+06 -1.984027E+08  1.610651E+08  5.770865E+08 -2.202209E+07
       143   3  3.785458E+08 -6.992992E+07 -3.598274E+08  1.594149E+08  1.488550E+09 -2.191774E+08
       143   4  4.490386E+08 -2.124927E+07 -2.696945E+08  1.538598E+08  1.343003E+09 -4.674093E+08
       143   5  2.117400E+09  4.608179E+08  3.654539E+08  6.172027E+08  7.139939E+08  1.306550E+08
       143   6  2.290853E+09  5.587771E+08  5.138417E+08  6.011033E+08  5.524803E+08 -3.215724E+07
       143   7  2.125836E+09  4.521024E+08  3.209695E+08  5.949445E+08  1.472106E+09 -2.272728E+08
       143   8  2.303205E+09  5.480669E+08  4.573503E+08  5.742124E+08  1.314866E+09 -4.700810E+08
       144   1  2.937349E+09  3.490190E+08 -1.984581E+08  9.400298E+08  1.203691E+08  2.241635E+08
       144   2  3.081584E+09  4.470687E+08 -1.447250E+07  9.316494E+08  9.803115E+07  6.498112E+07
       144   3  2.874242E+09  2.741939E+08 -3.826973E+08  9.270077E+08  8.449803E+08 -4.440273E+07
       144   4  2.995976E+09  3.459042E+08 -2.635811E+08  9.159556E+08  7.649451E+08 -2.884566E+08
       144   5  4.678812E+09  7.575994E+08  4.465548E+08  1.370186E+09  6.038484E+07  2.146404E+08
       144   6  4.574644E+09  7.425847E+08  5.221002E+08  1.394680E+09 -4.873515E+06  7.192409E+07
       144   7  4.550505E+09  6.449766E+08  2.314163E+08  1.398692E+09  7.744775E+08 -2.936224E+07
       144   8  4.402800E+09  5.925756E+08  2.324676E+08  1.429263E+09  6.480227E+08 -2.518858E+08
       145   1 -3.114102E+09 -2.219153E+08  3.674475E+08 -6.950174E+08  5.365578E+07 -9.818364E+07
       145   2 -2.349510E+09  8.074749E+07  6.563371E+08 -8.033556E+08 -2.462654E+08  3.361310E+08
       145   3 -3.355171E+09 -3.163668E+08  2.217163E+08 -5.072000E+08  1.054429E+09 -8.417631E+08
       145   4 -2.545926E+09 -5.975881E+05  5.200614E+08 -6.425119E+08  6.812107E+08 -3.053429E+08
       145   5 -5.089375E+09 -4.862683E+08 -3.044403E+08 -1.139633E+09  7.193770E+07 -9.875376E+07
       145   6 -4.054618E+09 -1.527535E+08  7.475419E+07 -1.238228E+09 -2.269353E+08  3.350123E+08
       145   7 -5.349115E+09 -4.516995E+08 -4.170667E+08 -8.922435E+08  1.072409E+09 -8.414483E+08
       145   8 -4.259813E+09 -1.206814E+08 -3.012982E+07 -1.025142E+09  7.003068E+08 -3.057048E+08
       146   1 -2.224185E+09 -4.370892E+08 -3.058045E+08 -4.197936E+08  6.099771E+08 -3.107987E+08
       146   2 -2.388625E+09 -5.285298E+08 -3.829385E+08 -2.888635E+08  1.516239E+09 -1.119777E+09
       146   3 -1.680798E+09 -1.889313E+08 -6.118997E+07 -5.080498E+08  1.986049E+08  2.047409E+08
       146   4 -1.823129E+09 -2.757834E+08 -1.542944E+08 -3.962775E+08  1.001782E+09 -4.560934E+08
       146   5 -3.879347E+08  9.091609E+07  4.034721E+08 -1.124833E+08  6.089429E+08 -3.082011E+08
       146   6 -4.321525E+08  6.625843E+07  3.824395E+08 -7.740074E+07  1.518124E+09 -1.125741E+09
       146   7 -2.393145E+08  1.604300E+08  4.760636E+08 -1.361315E+08  1.874292E+08  2.126457E+08
       146   8 -2.877357E+08  1.268743E+08  4.271209E+08 -1.061822E+08  9.928712E+08 -4.555108E+08
       147   1  3.879347E+08 -9.091609E+07 -4.034721E+08  1.124833E+08  6.089429E+08 -3.082011E+08
       147   2  4.321525E+08 -6.625843E+07 -3.824395E+08  7.740074E+07  1.518124E+09 -1.125741E+09
       147   3  2.393145E+08 -1.604300E+08 -4.760636E+08  1.361315E+08  1.874292E+08  2.126457E+08
       147   4  2.877357E+08 -1.268743E+08 -4.271209E+08  1.061822E+08  9.928712E+08 -4.555108E+08
       147   5  2.224185E+09  4.370892E+08  3.058045E+08  4.197936E+08  6.099771E+08 -3.107987E+08
       147   6  2.388625E+09  5.285298E+08  3.829385E+08  2.888635E+08  1.516239E+09 -1.119777E+09
       147   7  1.680798E+09  1.889313E+08  6.118997E+07  5.080498E+08  1.986049E+08  2.047409E+08
       147   8  1.823129E+09  2.757834E+08  1.542944E+08  3.962775E+08  1.001782E+09 -4.560934E+08
       148   1  3.114102E+09  2.219153E+08 -3.674475E+08  6.950174E+08  5.365578E+07 -9.818364E+07
       148   2  3.355171E+09  3.163668E+08 -2.217163E+08  5.072000E+08  1.054429E+09 -8.417631E+08
       148   3  2.349510E+09 -8.074749E+07 -6.563371E+08  8.033556E+08 -2.462654E+08  3.361310E+08
       148   4  2.545926E+09  5.975883E+05 -5.200614E+08  6.425119E+08  6.812107E+08 -3.053429E+08
       148   5  5.089375E+09  4.862683E+08  3.044403E+08  1.139633E+09  7.193770E+07 -9.875376E+07
       148   6  5.349115E+09  4.516995E+08  4.170667E+08  8.922435E+08  1.072409E+09 -8.414483E+08
       148   7  4.054618E+09  1.527535E+08 -7.475418E+07  1.238228E+09 -2.269353E+08  3.350123E+08
       148   8  4.259813E+09  1.206814E+08  3.012982E+07  1.025142E+09  7.003068E+08 -3.057048E+08
       149   1 -3.250038E+09 -1.728066E+08  3.618966E+08 -9.714801E+08 -1.469567E+07  3.942144E+08
       149   2 -3.446240E+09 -2.451291E+08  3.065603E+08 -8.075018E+08  9.049886E+08 -1.197704E+08
       149   3 -4.243170E+09 -5.871228E+08 -3.562575E+07 -8.227260E+08  3.459747E+08 -1.571557E+08
       149   4 -4.417378E+09 -5.884900E+08  1.211026E+08 -6.202853E+08  1.287605E+09 -8.210374E+08
       149   5 -5.327997E+09 -5.515730E+08 -3.751212E+08 -1.481000E+09 -3.169408E+07  4.102163E+08
       149   6 -5.473865E+09 -5.045297E+08 -3.795474E+08 -1.328885E+09  8.622146E+08 -3.398490E+07
       149   7 -6.278801E+09 -8.580156E+08 -7.275830E+08 -1.391546E+09  2.066182E+08 -7.712238E+07
       149   8 -6.391011E+09 -7.120363E+08 -5.080510E+08 -1.205823E+09  1.112203E+09 -6.548211E+08
       150   1 -2.323124E+09 -3.867038E+08 -3.412529E+08 -6.190964E+08  5.797662E+08  1.524957E+08
       150   2 -3.158635E+09 -7.846376E+08 -7.611862E+08 -4.846593E+08  9.476337E+08 -4.189054E+08
       150   3 -2.499092E+09 -4.848981E+08 -4.152191E+08 -4.863461E+08  1.462932E+09 -4.759709E+08
       150   4 -3.404623E+09 -9.189481E+08 -8.673344E+08 -3.201734E+08  1.962953E+09 -1.231749E+09
       150   5 -4.232648E+08  9.559752E+07  3.733953E+08 -1.658864E+08  5.777097E+08  1.679214E+08
       150   6 -6.682138E+08 -3.210313E+07  2.117005E+08 -1.298641E+08  9.450913E+08 -4.032255E+08
       150   7 -4.669172E+08  7.278439E+07  3.617381E+08 -1.303160E+08  1.460773E+09 -4.602682E+08
       150   8 -7.307722E+08 -6.473761E+07  1.910840E+08 -8.579021E+07  1.960268E+09 -1.215727E+09
       151   1  4.232648E+08 -9.559752E+07 -3.733953E+08  1.658864E+08  5.777097E+08  1.679214E+08
       151   2  6.682138E+08  3.210313E+07 -2.117005E+08  1.298641E+08  9.450913E+08 -4.032255E+08
       151   3  4.669172E+08 -7.278439E+07 -3.617381E+08  1.303160E+08  1.460773E+09 -4.602682E+08
       151   4  7.307722E+08  6.473761E+07 -1.910840E+08  8.579021E+07  1.960268E+09 -1.215727E+09
       151   5  2.323124E+09  3.867037E+08  3.412529E+08  6.190964E+08  5.797662E+08  1.524957E+08
       151   6  3.158635E+09  7.846376E+08  7.611862E+08  4.846593E+08  9.476337E+08 -4.189054E+08
       151   7  2.499092E+09  4.848980E+08  4.152191E+08  4.863461E+08  1.462932E+09 -4.759709E+08
       151   8  3.404623E+09  9.189481E+08  8.673344E+08  3.201734E+08  1.962953E+09 -1.231749E+09
       152   1  3.250038E+09  1.728066E+08 -3.618966E+08  9.714801E+08 -1.469567E+07  3.942144E+08
       152   2  4.243170E+09  5.871228E+08  3.562575E+07  8.227260E+08  3.459747E+08 -1.571557E+08
       152   3  3.446240E+09  2.451291E+08 -3.065603E+08  8.075018E+08  9.049886E+08 -1.197704E+08
       152   4  4.417378E+09  5.884900E+08 -1.211026E+08  6.202853E+08  1.287605E+09 -8.210374E+08
       152   5  5.327997E+09  5.515730E+08  3.751212E+08  1.481000E+09 -3.169408E+07  4.102163E+08
       152   6  6.278801E+09  8.580156E+08  7.275830E+08  1.391546E+09  2.066182E+08 -7.712238E+07
       152   7  5.473865E+09  5.045297E+08  3.795474E+08  1.328885E+09  8.622146E+08 -3.398490E+07
       152   8  6.391011E+09  7.120363E+08  5.080510E+08  1.205823E+09  1.112203E+09 -6.548211E+08
       153   1 -2.595527E+09  5.625607E+07  5.006379E+08 -5.710088E+08 -2.547644E+08 -9.258086E+07
       153   2 -2.487639E+09 -7.882122E+07  4.679509E+08 -5.210954E+08 -3.056961E+08  2.855804E+08
       153   3 -2.599720E+09  2.383464E+08  4.330861E+08 -5.405076E+08  5.546781E+08 -7.276326E+08
       153   4 -2.469310E+09  9.328106E+07  4.520001E+08 -4.931660E+08  4.553114E+08 -2.465796E+08
       153   5 -4.356197E+09 -1.562771E+08 -9.132323E+07 -8.467055E+08 -1.983697E+08 -1.232829E+08
       153   6 -4.022037E+09 -2.362107E+08 -3.958526E+07 -8.223577E+08 -2.768651E+08  2.733190E+08
       153   7 -4.392516E+09  6.607576E+07 -1.564339E+08 -7.602485E+08  6.177898E+08 -7.821538E+08
       153   8 -4.024570E+09 -2.757036E+07 -5.083350E+07 -7.467839E+08  4.891103E+08 -2.788903E+08
       154   1 -1.837493E+09 -1.930065E+08 -1.313052E+08 -3.707537E+08  1.138180E+08 -3.586297E+08
       154   2 -1.798933E+09 -2.842523E+07 -1.092339E+08 -3.628512E+08  8.182576E+08 -9.302356E+08
       154   3 -1.820332E+09 -3.180649E+08 -1.875406E+08 -3.240080E+08 -6.022621E+07  1.457233E+08
       154   4 -1.786285E+09 -1.793117E+08 -1.698193E+08 -3.157346E+08  6.319518E+08 -3.446117E+08
       154   5 -2.905433E+08  1.500955E+08  4.357102E+08 -9.934316E+07  9.728059E+07 -3.544028E+08
       154   6 -2.966278E+08  1.777782E+08  4.033186E+08 -9.722568E+07  8.007129E+08 -9.224367E+08
       154   7 -2.960245E+08  1.065067E+08  3.971231E+08 -8.681769E+07 -7.263018E+07  1.471850E+08
       154   8 -3.013113E+08  1.292758E+08  3.682490E+08 -8.460083E+07  6.188029E+08 -3.401435E+08
       155   1  2.905433E+08 -1.500955E+08 -4.357102E+08  9.934316E+07  9.728059E+07 -3.544028E+08
       155   2  2.966278E+08 -1.777782E+08 -4.033186E+08  9.722568E+07  8.007129E+08 -9.224367E+08
       155   3  2.960245E+08 -1.065067E+08 -3.971231E+08  8.681768E+07 -7.263018E+07  1.471850E+08
       155   4  3.013113E+08 -1.292758E+08 -3.682490E+08  8.460083E+07  6.188029E+08 -3.401435E+08
       155   5  1.837493E+09  1.930065E+08  1.313052E+08  3.707537E+08  1.138180E+08 -3.586297E+08
       155   6  1.798933E+09  2.842523E+07  1.092339E+08  3.628512E+08  8.182576E+08 -9.302356E+08
       155   7  1.820332E+09  3.180649E+08  1.875406E+08  3.240080E+08 -6.022621E+07  1.457233E+08
       155   8  1.786285E+09  1.793117E+08  1.698193E+08  3.157346E+08  6.319518E+08 -3.446117E+08
       156   1  2.595527E+09 -5.625607E+07 -5.006379E+08  5.710088E+08 -2.547644E+08 -9.258086E+07
       156   2  2.599720E+09 -2.383464E+08 -4.330861E+08  5.405076E+08  5.546781E+08 -7.276326E+08
       156   3  2.487639E+09  7.882122E+07 -4.679509E+08  5.210954E+08 -3.056961E+08  2.855804E+08
       156   4  2.469310E+09 -9.328106E+07 -4.520001E+08  4.931660E+08  4.553114E+08 -2.465796E+08
       156   5  4.356197E+09  1.562771E+08  9.132323E+07  8.467055E+08 -1.983697E+08 -1.232829E+08
       156   6  4.392516E+09 -6.607576E+07  1.564339E+08  7.602485E+08  6.177898E+08 -7.821538E+08
       156   7  4.022037E+09  2.362107E+08  3.958527E+07  8.223577E+08 -2.768651E+08  2.733190E+08
       156   8  4.024570E+09  2.757036E+07  5.083350E+07  7.467839E+08  4.891103E+08 -2.788903E+08
       157   1 -3.082664E+09  9.974499E+07  4.837827E+08 -7.473732E+08 -2.820979E+08  5.494799E+08
       157   2 -3.556008E+09  1.009548E+08  2.204461E+08 -2.885806E+08  7.309537E+08 -4.234743E+08
       157   3 -5.729789E+09 -6.529949E+08 -2.431347E+08 -3.296198E+08  7.535909E+08 -5.860654E+08
       157   4 -6.399077E+09 -6.549241E+08 -5.204743E+08  2.470103E+08  2.090524E+09 -1.689793E+09
       157   5 -5.174139E+09 -1.108675E+08 -2.068435E+08 -1.130321E+09 -2.487650E+08  6.111264E+08
       157   6 -5.628190E+09  4.238166E+08 -3.043499E+08 -4.946792E+08  7.599908E+08 -3.480890E+08
       157   7 -8.930735E+09 -7.258272E+08 -1.225268E+09 -7.597853E+08  7.629450E+08 -5.083765E+08
       157   8 -9.630435E+09 -7.413962E+07 -1.315646E+09  2.901705E+07  2.093505E+09 -1.594666E+09
       158   1 -2.178307E+09 -2.113782E+08 -2.377201E+08 -4.788870E+08  1.883500E+08  1.669485E+08
       158   2 -4.090743E+09 -9.898099E+08 -1.065183E+09 -1.357848E+08  1.364025E+09 -1.086175E+09
       158   3 -2.507846E+09 -3.150796E+08 -3.781393E+08 -1.681008E+08  1.095237E+09 -8.245196E+08
       158   4 -4.533730E+09 -1.103930E+09 -1.160354E+09  2.577401E+08  2.608054E+09 -2.385470E+09
       158   5 -3.812979E+08  1.457392E+08  4.085179E+08 -1.283174E+08  1.803509E+08  1.780873E+08
       158   6 -9.022657E+08 -7.137322E+07  1.668914E+08 -3.638343E+07  1.408542E+09 -1.110170E+09
       158   7 -4.740098E+08  1.135402E+08  3.605975E+08 -4.504247E+07  1.096646E+09 -8.434699E+08
       158   8 -9.905720E+08 -7.155992E+07  2.123042E+08  6.906126E+07  2.666527E+09 -2.447658E+09
       159   1  3.812979E+08 -1.457392E+08 -4.085179E+08  1.283174E+08  1.803509E+08  1.780873E+08
       159   2  9.022657E+08  7.137322E+07 -1.668914E+08  3.638343E+07  1.408542E+09 -1.110170E+09
       159   3  4.740098E+08 -1.135402E+08 -3.605975E+08  4.504247E+07  1.096646E+09 -8.434699E+08
       159   4  9.905720E+08  7.155992E+07 -2.123042E+08 -6.906126E+07  2.666527E+09 -2.447658E+09
       159   5  2.178307E+09  2.113782E+08  2.377201E+08  4.788870E+08  1.883500E+08  1.669485E+08
       159   6  4.090743E+09  9.898099E+08  1.065183E+09  1.357848E+08  1.364025E+09 -1.086175E+09
       159   7  2.507846E+09  3.150796E+08  3.781393E+08  1.681008E+08  1.095237E+09 -8.245196E+08
       159   8  4.533730E+09  1.103930E+09  1.160354E+09 -2.577401E+08  2.608054E+09 -2.385470E+09
       160   1  3.082664E+09 -9.974499E+07 -4.837827E+08  7.473732E+08 -2.820979E+08  5.494799E+08
       160   2  5.729789E+09  6.529949E+08  2.431347E+08  3.296198E+08  7.535909E+08 -5.860654E+08
       160   3  3.556008E+09 -1.009548E+08 -2.204461E+08  2.885806E+08  7.309537E+08 -4.234743E+08
       160   4  6.399077E+09  6.549241E+08  5.204743E+08 -2.470103E+08  2.090524E+09 -1.689793E+09
       160   5  5.174139E+09  1.108675E+08  2.068435E+08  1.130321E+09 -2.487650E+08  6.111264E+08
       160   6  8.930735E+09  7.258272E+08  1.225268E+09  7.597853E+08  7.629450E+08 -5.083765E+08
       160   7  5.628190E+09 -4.238166E+08  3.043499E+08  4.946792E+08  7.599908E+08 -3.480890E+08
       160   8  9.630435E+09  7.413963E+07  1.315646E+09 -2.901705E+07  2.093505E+09 -1.594666E+09
       161   1 -4.643999E+06 -4.549459E+07  1.215581E+08 -1.058450E+08  3.097837E+07  9.819416E+07
       161   2 -1.245403E+06 -9.708443E+07  1.132390E+08 -9.726113E+07 -5.088092E+07  1.358654E+08
       161   3  7.819781E+06 -1.244023E+07  4.059422E+07 -7.412204E+07  6.158802E+07  9.775111E+07
       161   4  6.618078E+05 -7.295242E+07  7.980972E+06 -6.574961E+07 -1.174161E+07  1.516785E+08
       161   5 -2.276140E+07 -1.328985E+08  8.990168E+07 -1.718777E+08  8.523728E+06  1.269780E+08
       161   6 -1.704965E+07 -2.202388E+08  7.155143E+07 -1.583208E+08 -7.820143E+07  1.699809E+08
       161   7  3.746253E+07 -4.007448E+07  4.119677E+07 -1.181832E+08  3.302313E+07  1.208319E+08
       161   8  3.260973E+07 -1.352166E+08 -1.113921E+06 -1.049558E+08 -4.503767E+07  1.799278E+08
       162   1 -2.726395E+07 -3.948050E+07  3.773500E+07 -6.441532E+07  2.571310E+07  2.214390E+08
       162   2 -2.183704E+07 -2.128116E+07 -1.353504E+07 -4.573884E+07  9.738766E+07  2.697153E+08
       162   3 -1.245152E+07 -5.704807E+07  6.393590E+07 -5.908102E+07 -9.886360E+07  3.168704E+08
       162   4 -1.220615E+07 -4.306715E+07  7.402915E+05 -4.053724E+07 -2.419981E+07  3.772442E+08
       162   5  1.708813E+07  1.381471E+07  6.702919E+07 -1.726003E+07  3.176332E+07  1.964068E+08
       162   6 -6.104440E+06 -5.955494E+06 -4.217558E+06 -1.225568E+07  1.066935E+08  2.477218E+08
       162   7  3.247180E+07  2.052218E+07  1.006840E+08 -1.583071E+07 -9.022076E+07  2.889974E+08
       162   8  4.045213E+06 -4.223968E+06  1.726866E+07 -1.086192E+07 -1.237310E+07  3.524967E+08
       163   1 -1.708813E+07 -1.381471E+07 -6.702919E+07  1.726003E+07  3.176332E+07  1.964068E+08
       163   2  6.104440E+06  5.955494E+06  4.217558E+06  1.225568E+07  1.066935E+08  2.477218E+08
       163   3 -3.247180E+07 -2.052218E+07 -1.006840E+08  1.583071E+07 -9.022076E+07  2.889974E+08
       163   4 -4.045213E+06  4.223968E+06 -1.726866E+07  1.086192E+07 -1.237310E+07  3.524967E+08
       163   5  2.726395E+07  3.948050E+07 -3.773500E+07  6.441532E+07  2.571310E+07  2.214390E+08
       163   6  2.183704E+07  2.128116E+07  1.353504E+07  4.573884E+07  9.738766E+07  2.697153E+08
       163   7  1.245152E+07  5.704807E+07 -6.393590E+07  5.908102E+07 -9.886360E+07  3.168704E+08
       163   8  1.220615E+07  4.306715E+07 -7.402914E+05  4.053724E+07 -2.419981E+07  3.772442E+08
       164   1  4.643999E+06  4.549458E+07 -1.215581E+08  1.058450E+08  3.097837E+07  9.819416E+07
       164   2 -7.819781E+06  1.244023E+07 -4.059422E+07  7.412204E+07  6.158802E+07  9.775111E+07
       164   3  1.245403E+06  9.708443E+07 -1.132390E+08  9.726113E+07 -5.088092E+07  1.358654E+08
       164   4 -6.618078E+05  7.295242E+07 -7.980972E+06  6.574961E+07 -1.174161E+07  1.516785E+08
       164   5  2.276140E+07  1.328985E+08 -8.990168E+07  1.718777E+08  8.523728E+06  1.269780E+08
       164   6 -3.746253E+07  4.007448E+07 -4.119677E+07  1.181832E+08  3.302313E+07  1.208319E+08
       164   7  1.704965E+07  2.202388E+08 -7.155143E+07  1.583208E+08 -7.820143E+07  1.699809E+08
       164   8 -3.260973E+07  1.352166E+08  1.113921E+06  1.049558E+08 -4.503767E+07  1.799278E+08
       165   1  2.841610E+08 -4.266870E+08  9.228921E+07 -1.086553E+08 -1.116239E+08  2.141982E+08
       165   2  4.811798E+08 -5.071546E+08  2.839330E+07 -7.199668E+07 -1.858169E+08  2.261640E+08
       165   3 -6.575909E+06 -6.618842E+08 -5.532372E+07  1.957348E+06 -2.512074E+08  3.189436E+08
       165   4  1.770641E+08 -7.543418E+08 -1.342733E+08  4.218244E+07 -2.988465E+08  3.376647E+08
       165   5  5.199130E+08 -5.777315E+08  1.177014E+08 -2.239542E+08 -8.255371E+07  1.893590E+08
       165   6  8.108165E+08 -6.110017E+08  9.613016E+07 -1.606231E+08 -1.593170E+08  1.989259E+08
       165   7  1.662848E+08 -8.338872E+08 -5.506641E+07 -9.452979E+07 -2.202561E+08  2.920386E+08
       165   8  4.419375E+08 -8.797496E+08 -9.243358E+07 -2.699793E+07 -2.704091E+08  3.082917E+08
       166   1  1.306074E+08 -3.183622E+08  6.072619E+06 -5.240978E+07 -1.528440E+08  3.248298E+08
       166   2 -7.134653E+07 -4.886183E+08 -8.164598E+07  2.939715E+07 -3.289799E+08  4.812268E+08
       166   3  2.775180E+08 -3.768208E+08 -1.307106E+07 -3.119774E+07 -2.068954E+08  2.668031E+08
       166   4  5.882689E+07 -5.630853E+08 -1.281418E+08  5.323889E+07 -3.314616E+08  3.940661E+08
       166   5  6.134958E+07 -5.895146E+07  6.311848E+07 -1.404316E+07 -1.728799E+08  3.301429E+08
       166   6  1.734880E+07 -9.445883E+07  6.321045E+07  7.876943E+06 -3.533822E+08  4.913353E+08
       166   7  8.142210E+07 -9.390745E+07  1.297417E+07 -8.359408E+06 -2.209655E+08  2.776845E+08
       166   8  2.553366E+07 -1.411072E+08 -1.153640E+07  1.426532E+07 -3.500288E+08  4.099029E+08
       167   1 -6.134958E+07  5.895146E+07 -6.311848E+07  1.404316E+07 -1.728799E+08  3.301429E+08
       167   2 -1.734880E+07  9.445883E+07 -6.321045E+07 -7.876943E+06 -3.533822E+08  4.913353E+08
       167   3 -8.142210E+07  9.390745E+07 -1.297417E+07  8.359408E+06 -2.209655E+08  2.776845E+08
       167   4 -2.553366E+07  1.411072E+08  1.153640E+07 -1.426532E+07 -3.500288E+08  4.099029E+08
       167   5 -1.306074E+08  3.183622E+08 -6.072619E+06  5.240978E+07 -1.528440E+08  3.248298E+08
       167   6  7.134653E+07  4.886183E+08  8.164598E+07 -2.939715E+07 -3.289799E+08  4.812268E+08
       167   7 -2.775180E+08  3.768208E+08  1.307106E+07  3.119774E+07 -2.068954E+08  2.668031E+08
       167   8 -5.882689E+07  5.630853E+08  1.281418E+08 -5.323889E+07 -3.314616E+08  3.940661E+08
       168   1 -2.841610E+08  4.266869E+08 -9.228921E+07  1.086553E+08 -1.116239E+08  2.141982E+08
       168   2  6.575910E+06  6.618842E+08  5.532372E+07 -1.957348E+06 -2.512074E+08  3.189436E+08
       168   3 -4.811798E+08  5.071546E+08 -2.839330E+07  7.199668E+07 -1.858169E+08  2.261640E+08
       168   4 -1.770641E+08  7.543418E+08  1.342733E+08 -4.218244E+07 -2.988465E+08  3.376647E+08
       168   5 -5.199130E+08  5.777315E+08 -1.177014E+08  2.239542E+08 -8.255371E+07  1.893590E+08
       168   6 -1.662848E+08  8.338872E+08  5.506641E+07  9.452979E+07 -2.202561E+08  2.920386E+08
       168   7 -8.108165E+08  6.110017E+08 -9.613016E+07  1.606231E+08 -1.593170E+08  1.989259E+08
       168   8 -4.419375E+08  8.797496E+08  9.243358E+07  2.699793E+07 -2.704091E+08  3.082917E+08
       169   1 -2.844619E+08 -5.139022E+08 -5.246441E+07 -3.080163E+08  1.377007E+08  1.385920E+08
       169   2 -1.077406E+08 -2.822198E+08 -3.475297E+07 -1.986293E+08  1.581638E+08  1.121688E+08
       169   3 -1.947258E+08 -2.330273E+08  2.026760E+08 -3.236510E+08  2.406827E+08  1.891270E+08
       169   4 -4.579472E+07 -3.497213E+07  1.556709E+08 -2.142124E+08  2.594257E+08  1.239722E+08
       169   5 -4.876118E+08 -8.604696E+08 -2.173796E+08 -4.931231E+08  6.400610E+07  1.264371E+08
       169   6 -2.506596E+08 -5.070207E+08 -1.450690E+08 -3.438593E+08  1.011786E+08  1.150405E+08
       169   7 -3.531938E+08 -4.622452E+08  8.637017E+07 -5.322108E+08  1.553348E+08  1.923506E+08
       169   8 -1.455736E+08 -1.463364E+08  9.232800E+07 -3.823534E+08  1.910680E+08  1.417131E+08
       170   1 -2.179396E+08 -3.574924E+08 -1.156542E+08 -1.894891E+08  1.818096E+08  2.352899E+08
       170   2 -2.112080E+08 -2.209917E+08 -4.779630E+07 -1.950495E+08  3.120372E+08  2.116109E+08
       170   3 -7.691803E+07 -1.908881E+08 -7.303674E+07 -1.147297E+08  2.296796E+08  2.522948E+08
       170   4 -6.215604E+07 -5.027614E+07  1.309333E+07 -1.204058E+08  3.367346E+08  1.908770E+08
       170   5 -3.433395E+07 -7.172699E+07  2.515707E+07 -5.077345E+07  2.018921E+08  2.277029E+08
       170   6 -2.201898E+07 -2.464052E+07  6.786579E+07 -5.226336E+07  3.288598E+08  2.083258E+08
       170   7 -1.752491E+07 -4.806311E+07 -1.237129E+07 -3.074172E+07  2.544363E+08  2.489112E+08
       170   8  3.120416E+06  6.303626E+06  4.965019E+07 -3.226264E+07  3.583100E+08  1.916529E+08
       171   1  3.433395E+07  7.172699E+07 -2.515707E+07  5.077345E+07  2.018921E+08  2.277029E+08
       171   2  2.201898E+07  2.464052E+07 -6.786579E+07  5.226336E+07  3.288598E+08  2.083258E+08
       171   3  1.752491E+07  4.806311E+07  1.237129E+07  3.074172E+07  2.544363E+08  2.489112E+08
       171   4 -3.120415E+06 -6.303626E+06 -4.965019E+07  3.226264E+07  3.583100E+08  1.916529E+08
       171   5  2.179396E+08  3.574924E+08  1.156542E+08  1.894891E+08  1.818096E+08  2.352899E+08
       171   6  2.112080E+08  2.209917E+08  4.779630E+07  1.950495E+08  3.120372E+08  2.116109E+08
       171   7  7.691803E+07  1.908881E+08  7.303674E+07  1.147297E+08  2.296796E+08  2.522948E+08
       171   8  6.215604E+07  5.027614E+07 -1.309333E+07  1.204058E+08  3.367346E+08  1.908770E+08
       172   1  2.844619E+08  5.139022E+08  5.246441E+07  3.080163E+08  1.377007E+08  1.385920E+08
       172   2  1.947258E+08  2.330273E+08 -2.026760E+08  3.236510E+08  2.406827E+08  1.891270E+08
       172   3  1.077406E+08  2.822198E+08  3.475297E+07  1.986293E+08  1.581638E+08  1.121688E+08
       172   4  4.579472E+07  3.497213E+07 -1.556709E+08  2.142124E+08  2.594257E+08  1.239722E+08
       172   5  4.876118E+08  8.604696E+08  2.173796E+08  4.931231E+08  6.400610E+07  1.264371E+08
       172   6  3.531938E+08  4.622452E+08 -8.637017E+07  5.322108E+08  1.553348E+08  1.923506E+08
       172   7  2.506596E+08  5.070207E+08  1.450690E+08  3.438593E+08  1.011786E+08  1.150405E+08
       172   8  1.455736E+08  1.463364E+08 -9.232800E+07  3.823534E+08  1.910680E+08  1.417131E+08
       173   1  8.540946E+07 -9.525768E+08 -8.237666E+07 -3.792474E+08  3.069711E+07  2.100944E+08
       173   2  3.163092E+08 -9.466114E+08  1.155814E+08 -4.305098E+08  1.615317E+08  1.957029E+08
       173   3  4.433148E+08 -6.991736E+08 -2.912334E+07 -2.316516E+08 -8.486022E+07  1.786014E+08
       173   4  6.239125E+08 -7.502924E+08  4.372268E+07 -2.851566E+08  8.061993E+06  9.674862E+07
       173   5  1.336131E+08 -1.454000E+09 -2.183424E+08 -6.077497E+08  1.639632E+07  1.300370E+08
       173   6  3.703471E+08 -1.583415E+09 -5.924823E+07 -6.524104E+08  1.676390E+08  8.851980E+07
       173   7  6.908025E+08 -9.690325E+08 -3.583473E+07 -3.717819E+08 -6.718721E+07  1.272977E+08
       173   8  8.766111E+08 -1.160811E+09 -3.623392E+06 -4.188331E+08  4.666696E+07  1.733323E+07
       174   1  6.753602E+06 -6.532169E+08 -1.346654E+08 -2.331401E+08  3.276014E+07  3.073297E+08
       174   2  2.656769E+08 -4.860302E+08 -5.022367E+07 -1.422457E+08 -9.483298E+07  2.191987E+08
       174   3  1.383227E+08 -6.582827E+08 -8.130885E+07 -2.754751E+08  1.804636E+08  2.484789E+08
       174   4  3.935158E+08 -4.988311E+08 -1.158435E+07 -1.863068E+08 -3.731013E+06  1.339791E+08
       174   5  2.684306E+07 -1.499955E+08  2.232787E+07 -6.246970E+07  2.810298E+07  3.255465E+08
       174   6  7.789560E+07 -1.235237E+08  2.193882E+06 -3.811462E+07 -1.033323E+08  2.339602E+08
       174   7  6.860322E+07 -1.448465E+08  5.180618E+07 -7.381334E+07  1.733541E+08  2.699552E+08
       174   8  1.138933E+08 -1.252103E+08  1.661512E+07 -4.992075E+07 -1.474567E+07  1.521187E+08
       175   1 -2.684306E+07  1.499955E+08 -2.232787E+07  6.246970E+07  2.810298E+07  3.255465E+08
       175   2 -7.789560E+07  1.235237E+08 -2.193882E+06  3.811462E+07 -1.033323E+08  2.339602E+08
       175   3 -6.860322E+07  1.448465E+08 -5.180618E+07  7.381334E+07  1.733541E+08  2.699552E+08
       175   4 -1.138933E+08  1.252103E+08 -1.661512E+07  4.992075E+07 -1.474567E+07  1.521187E+08
       175   5 -6.753602E+06  6.532169E+08  1.346654E+08  2.331401E+08  3.276014E+07  3.073297E+08
       175   6 -2.656769E+08  4.860302E+08  5.022367E+07  1.422457E+08 -9.483298E+07  2.191987E+08
       175   7 -1.383227E+08  6.582827E+08  8.130885E+07  2.754751E+08  1.804636E+08  2.484789E+08
       175   8 -3.935158E+08  4.988311E+08  1.158435E+07  1.863068E+08 -3.731013E+06  1.339791E+08
       176   1 -8.540946E+07  9.525768E+08  8.237666E+07  3.792474E+08  3.069711E+07  2.100944E+08
       176   2 -4.433148E+08  6.991736E+08  2.912334E+07  2.316516E+08 -8.486022E+07  1.786014E+08
       176   3 -3.163092E+08  9.466114E+08 -1.155814E+08  4.305098E+08  1.615317E+08  1.957029E+08
       176   4 -6.239125E+08  7.502924E+08 -4.372268E+07  2.851565E+08  8.061993E+06  9.674862E+07
       176   5 -1.336131E+08  1.454000E+09  2.183424E+08  6.077497E+08  1.639632E+07  1.300370E+08
       176   6 -6.908025E+08  9.690325E+08  3.583473E+07  3.717819E+08 -6.718721E+07  1.272977E+08
       176   7 -3.703471E+08  1.583415E+09  5.924823E+07  6.524104E+08  1.676390E+08  8.851980E+07
       176   8 -8.766111E+08  1.160811E+09  3.623393E+06  4.188331E+08  4.666696E+07  1.733323E+07
       177   1 -6.790824E+08 -7.198986E+08  8.095594E+07 -5.595981E+08  2.107333E+08  1.227918E+08
       177   2 -2.560843E+08 -4.529924E+08  7.666101E+07 -3.846268E+08  1.401078E+08 -3.481289E+07
       177   3 -6.725673E+08 -4.347292E+08  4.879921E+08 -4.740201E+08  4.261465E+08  2.279478E+08
       177   4 -3.157496E+08 -2.413896E+08  3.236896E+08 -3.027033E+08  3.421674E+08  4.852329E+07
       177   5 -1.210895E+09 -1.339661E+09 -2.645164E+08 -9.586705E+08  5.339217E+07  9.796268E+07
       177   6 -6.988982E+08 -9.642633E+08 -2.095644E+08 -7.415315E+08  2.669034E+07 -2.350788E+07
       177   7 -1.192694E+09 -9.692716E+08  1.715915E+08 -8.766292E+08  2.431380E+08  2.443185E+08
       177   8 -7.477814E+08 -6.706712E+08  6.529561E+07 -6.633009E+08  2.035792E+08  9.956791E+07
       178   1 -5.421961E+08 -5.489979E+08 -2.100867E+08 -3.261388E+08  3.161672E+08  9.466475E+07
       178   2 -6.443686E+08 -4.526302E+08 -1.399803E+08 -2.576247E+08  5.231520E+08  7.361955E+07
       178   3 -1.529459E+08 -2.884806E+08 -4.079843E+07 -2.003160E+08  2.092519E+08 -2.859883E+07
       178   4 -2.469499E+08 -1.890980E+08  4.371105E+07 -1.346390E+08  3.372520E+08 -7.624744E+07
       178   5 -9.575290E+07 -9.757544E+07  5.927300E+07 -8.738864E+07  3.470872E+08  1.074047E+08
       178   6 -9.278598E+07 -4.140980E+07  1.488606E+08 -6.903032E+07  5.522527E+08  8.927973E+07
       178   7 -2.283201E+06 -3.859960E+07  7.936469E+07 -5.367452E+07  2.432852E+08 -1.329771E+07
       178   8  7.538515E+06  2.303989E+07  1.836990E+08 -3.607642E+07  3.695012E+08 -5.812959E+07
       179   1  9.575290E+07  9.757544E+07 -5.927300E+07  8.738864E+07  3.470872E+08  1.074047E+08
       179   2  9.278598E+07  4.140980E+07 -1.488606E+08  6.903032E+07  5.522527E+08  8.927973E+07
       179   3  2.283201E+06  3.859960E+07 -7.936469E+07  5.367452E+07  2.432852E+08 -1.329771E+07
       179   4 -7.538515E+06 -2.303989E+07 -1.836990E+08  3.607642E+07  3.695012E+08 -5.812959E+07
       179   5  5.421961E+08  5.489979E+08  2.100867E+08  3.261388E+08  3.161672E+08  9.466475E+07
       179   6  6.443686E+08  4.526302E+08  1.399803E+08  2.576247E+08  5.231520E+08  7.361955E+07
       179   7  1.529459E+08  2.884806E+08  4.079843E+07  2.003160E+08  2.092519E+08 -2.859883E+07
       179   8  2.469499E+08  1.890980E+08 -4.371105E+07  1.346390E+08  3.372520E+08 -7.624744E+07
       180   1  6.790824E+08  7.198985E+08 -8.095594E+07  5.595981E+08  2.107333E+08  1.227918E+08
       180   2  6.725673E+08  4.347292E+08 -4.879921E+08  4.740201E+08  4.261465E+08  2.279478E+08
       180   3  2.560843E+08  4.529924E+08 -7.666101E+07  3.846268E+08  1.401078E+08 -3.481289E+07
       180   4  3.157496E+08  2.413896E+08 -3.236896E+08  3.027033E+08  3.421674E+08  4.852329E+07
       180   5  1.210895E+09  1.339661E+09  2.645164E+08  9.586705E+08  5.339217E+07  9.796268E+07
       180   6  1.192694E+09  9.692716E+08 -1.715915E+08  8.766292E+08  2.431380E+08  2.443185E+08
       180   7  6.988982E+08  9.642633E+08  2.095644E+08  7.415315E+08  2.669034E+07 -2.350788E+07
       180   8  7.477814E+08  6.706712E+08 -6.529561E+07  6.633009E+08  2.035792E+08  9.956791E+07
       181   1 -1.916020E+08 -1.763304E+09 -1.306342E+08 -7.623426E+08  1.963135E+08  1.230438E+08
       181   2  5.844012E+07 -1.975306E+09  1.668718E+08 -8.136564E+08  4.088288E+08  1.485317E+08
       181   3  3.907677E+08 -1.230152E+09 -1.296740E+08 -4.613294E+08  6.733193E+07  2.611602E+06
       181   4  5.175092E+08 -1.580215E+09 -1.200117E+08 -5.163585E+08  2.004218E+08 -1.175251E+08
       181   5 -5.527117E+08 -3.020134E+09 -6.160161E+08 -1.157684E+09  1.591123E+08 -7.279035E+07
       181   6 -3.313731E+08 -3.563028E+09 -4.263890E+08 -1.204782E+09  4.114293E+08 -1.120161E+08
       181   7  4.495277E+08 -2.003783E+09 -3.441352E+08 -6.663840E+08  1.050079E+08 -1.316242E+08
       181   8  5.437839E+08 -2.698821E+09 -4.477111E+08 -7.183481E+08  2.786926E+08 -3.190058E+08
       182   1 -1.966471E+08 -1.177638E+09 -3.123941E+08 -4.871154E+08  2.466500E+08  1.629271E+08
       182   2  2.510931E+08 -7.869956E+08 -1.340049E+08 -3.046448E+08  5.954823E+07  4.977453E+07
       182   3 -9.048206E+07 -1.348640E+09 -2.783701E+08 -5.288024E+08  4.472447E+08  1.295637E+08
       182   4  3.338152E+08 -9.901088E+08 -1.557936E+08 -3.489297E+08  1.764451E+08 -6.445711E+07
       182   5 -1.050363E+07 -2.733592E+08  1.473246E+07 -1.305222E+08  2.514291E+08  2.030669E+08
       182   6  7.858439E+07 -1.995706E+08 -9.530081E+06 -8.162933E+07  5.035843E+07  7.842269E+07
       182   7  4.052779E+07 -2.965947E+08  7.654652E+07 -1.416922E+08  4.445985E+08  1.817762E+08
       182   8  1.068012E+08 -2.479432E+08 -1.248127E+06 -9.349543E+07  1.596821E+08 -2.326397E+07
       183   1  1.050363E+07  2.733592E+08 -1.473246E+07  1.305222E+08  2.514291E+08  2.030669E+08
       183   2 -7.858439E+07  1.995706E+08  9.530081E+06  8.162933E+07  5.035843E+07  7.842269E+07
       183   3 -4.052779E+07  2.965947E+08 -7.654652E+07  1.416922E+08  4.445985E+08  1.817762E+08
       183   4 -1.068012E+08  2.479432E+08  1.248127E+06  9.349543E+07  1.596821E+08 -2.326397E+07
       183   5  1.966471E+08  1.177637E+09  3.123941E+08  4.871154E+08  2.466500E+08  1.629271E+08
       183   6 -2.510931E+08  7.869956E+08  1.340049E+08  3.046448E+08  5.954823E+07  4.977453E+07
       183   7  9.048206E+07  1.348640E+09  2.783701E+08  5.288024E+08  4.472447E+08  1.295637E+08
       183   8 -3.338152E+08  9.901088E+08  1.557936E+08  3.489297E+08  1.764451E+08 -6.445711E+07
       184   1  1.916020E+08  1.763304E+09  1.306342E+08  7.623426E+08  1.963135E+08  1.230438E+08
       184   2 -3.907677E+08  1.230152E+09  1.296740E+08  4.613294E+08  6.733193E+07  2.611602E+06
       184   3 -5.844012E+07  1.975306E+09 -1.668718E+08  8.136564E+08  4.088288E+08  1.485317E+08
       184   4 -5.175092E+08  1.580215E+09  1.200117E+08  5.163585E+08  2.004218E+08 -1.175251E+08
       184   5  5.527117E+08  3.020134E+09  6.160161E+08  1.157684E+09  1.591123E+08 -7.279035E+07
       184   6 -4.495277E+08  2.003783E+09  3.441352E+08  6.663840E+08  1.050079E+08 -1.316242E+08
       184   7  3.313731E+08  3.563028E+09  4.263890E+08  1.204782E+09  4.114293E+08 -1.120161E+08
       184   8 -5.437839E+08  2.698821E+09  4.477111E+08  7.183481E+08  2.786926E+08 -3.190058E+08
       185   1 -8.619044E+08 -1.380295E+09  4.609499E+08 -8.717018E+08  2.302563E+08  3.856859E+07
       185   2 -7.489559E+08 -1.303606E+09  1.822552E+08 -7.568237E+08 -6.933424E+07 -3.148291E+08
       185   3 -5.714229E+08 -9.038139E+08  1.227811E+09 -8.393736E+08  5.072294E+08  2.070387E+08
       185   4 -4.022502E+08 -7.763138E+08  1.082272E+09 -7.264888E+08  2.427632E+08 -1.324014E+08
       185   5 -1.568339E+09 -2.532770E+09 -9.672286E+07 -1.535265E+09 -2.818183E+07  4.023507E+06
       185   6 -1.549703E+09 -2.467234E+09 -4.070575E+08 -1.430261E+09 -3.591713E+08 -3.729422E+08
       185   7 -1.206347E+09 -1.988766E+09  7.118483E+08 -1.539062E+09  2.637212E+08  1.427983E+08
       185   8 -1.132871E+09 -1.874403E+09  5.336595E+08 -1.434853E+09 -3.233104E+07 -2.190907E+08
       186   1 -8.278423E+08 -1.107924E+09 -2.968301E+08 -4.959354E+08  3.526489E+08 -1.747824E+08
       186   2 -7.556836E+08 -8.879201E+08 -2.208454E+07 -4.600105E+08  5.931771E+08 -1.294213E+08
       186   3 -5.415439E+08 -8.742279E+08 -1.108460E+08 -4.024833E+08 -6.294983E+07 -4.795170E+08
       186   4 -4.067275E+08 -5.956632E+08  3.110111E+08 -3.684764E+08  1.293945E+08 -4.477524E+08
       186   5 -1.019183E+08 -1.769659E+08  2.002344E+08 -1.328855E+08  4.172442E+08 -1.120508E+08
       186   6 -3.565525E+06 -3.899820E+07  4.582274E+08 -1.232594E+08  6.398163E+08 -3.097540E+07
       186   7 -1.254079E+07 -1.016832E+08  2.796183E+08 -1.078451E+08  3.940862E+07 -3.884403E+08
       186   8  1.493732E+08  9.874803E+07  6.861647E+08 -9.873297E+07  2.140220E+08 -3.223076E+08
       187   1  1.019183E+08  1.769659E+08 -2.002344E+08  1.328855E+08  4.172442E+08 -1.120508E+08
       187   2  3.565525E+06  3.899820E+07 -4.582274E+08  1.232594E+08  6.398163E+08 -3.097541E+07
       187   3  1.254079E+07  1.016832E+08 -2.796183E+08  1.078451E+08  3.940862E+07 -3.884403E+08
       187   4 -1.493732E+08 -9.874803E+07 -6.861647E+08  9.873297E+07  2.140220E+08 -3.223076E+08
       187   5  8.278423E+08  1.107924E+09  2.968301E+08  4.959354E+08  3.526489E+08 -1.747824E+08
       187   6  7.556836E+08  8.879201E+08  2.208454E+07  4.600105E+08  5.931771E+08 -1.294213E+08
       187   7  5.415439E+08  8.742279E+08  1.108460E+08  4.024833E+08 -6.294983E+07 -4.795170E+08
       187   8  4.067275E+08  5.956632E+08 -3.110111E+08  3.684764E+08  1.293945E+08 -4.477524E+08
       188   1  8.619044E+08  1.380295E+09 -4.609499E+08  8.717018E+08  2.302563E+08  3.856859E+07
       188   2  5.714229E+08  9.038139E+08 -1.227811E+09  8.393736E+08  5.072294E+08  2.070387E+08
       188   3  7.489559E+08  1.303606E+09 -1.822553E+08  7.568237E+08 -6.933424E+07 -3.148291E+08
       188   4  4.022502E+08  7.763138E+08 -1.082272E+09  7.264888E+08  2.427632E+08 -1.324014E+08
       188   5  1.568339E+09  2.532770E+09  9.672287E+07  1.535265E+09 -2.818183E+07  4.023506E+06
       188   6  1.206347E+09  1.988766E+09 -7.118483E+08  1.539062E+09  2.637212E+08  1.427983E+08
       188   7  1.549703E+09  2.467234E+09  4.070575E+08  1.430261E+09 -3.591713E+08 -3.729422E+08
       188   8  1.132871E+09  1.874403E+09 -5.336595E+08  1.434853E+09 -3.233104E+07 -2.190907E+08
       189   1 -4.425575E+08 -3.698163E+09 -2.512911E+08 -1.251905E+09  3.265727E+08  7.444252E+06
       189   2 -6.596850E+08 -4.809202E+09 -2.555710E+08 -1.145633E+09  5.489388E+08  1.047065E+08
       189   3  2.772837E+07 -2.745422E+09 -5.497904E+08 -7.110119E+08  2.265986E+08 -3.047154E+08
       189   4 -3.792480E+08 -4.080944E+09 -9.669225E+08 -6.062948E+08  3.977871E+08 -5.143899E+08
       189   5 -1.220965E+09 -6.369177E+09 -1.286117E+09 -1.855361E+09  2.999629E+08 -3.571735E+08
       189   6 -1.736129E+09 -8.311713E+09 -1.629258E+09 -1.669147E+09  5.678597E+08 -3.523165E+08
       189   7 -2.652749E+08 -4.601253E+09 -1.194441E+09 -9.956179E+08  3.061965E+08 -5.896137E+08
       189   8 -9.849132E+08 -6.803965E+09 -1.965528E+09 -8.112942E+08  5.234397E+08 -8.955568E+08
       190   1 -4.510212E+08 -2.472288E+09 -6.617445E+08 -8.131436E+08  3.866914E+08 -3.186970E+07
       190   2  1.891405E+07 -1.717051E+09 -4.517654E+08 -4.785987E+08  2.041052E+08 -2.318174E+08
       190   3 -6.488917E+08 -3.221167E+09 -8.301801E+08 -7.524065E+08  5.923161E+08  9.163501E+05
       190   4 -2.419885E+08 -2.550196E+09 -7.490077E+08 -4.189914E+08  3.547589E+08 -4.248691E+08
       190   5 -2.994340E+07 -5.715403E+08  3.480331E+07 -2.178812E+08  4.039195E+08  5.592528E+07
       190   6  2.942656E+07 -4.357239E+08 -6.421355E+07 -1.282401E+08  1.899866E+08 -1.675512E+08
       190   7 -3.414509E+07 -7.233842E+08  1.035787E+08 -2.016067E+08  5.961061E+08  1.159844E+08
       190   8 -2.740143E+07 -6.458838E+08 -1.133379E+08 -1.122684E+08  3.270475E+08 -3.321897E+08
       191   1  2.994340E+07  5.715403E+08 -3.480331E+07  2.178812E+08  4.039195E+08  5.592528E+07
       191   2 -2.942656E+07  4.357239E+08  6.421355E+07  1.282401E+08  1.899866E+08 -1.675512E+08
       191   3  3.414509E+07  7.233842E+08 -1.035787E+08  2.016067E+08  5.961061E+08  1.159844E+08
       191   4  2.740143E+07  6.458838E+08  1.133379E+08  1.122684E+08  3.270475E+08 -3.321897E+08
       191   5  4.510212E+08  2.472288E+09  6.617445E+08  8.131436E+08  3.866914E+08 -3.186970E+07
       191   6 -1.891405E+07  1.717051E+09  4.517654E+08  4.785987E+08  2.041052E+08 -2.318174E+08
       191   7  6.488917E+08  3.221167E+09  8.301801E+08  7.524065E+08  5.923161E+08  9.163508E+05
       191   8  2.419885E+08  2.550196E+09  7.490077E+08  4.189914E+08  3.547589E+08 -4.248691E+08
       192   1  4.425575E+08  3.698163E+09  2.512910E+08  1.251905E+09  3.265727E+08  7.444253E+06
       192   2 -2.772837E+07  2.745422E+09  5.497904E+08  7.110119E+08  2.265986E+08 -3.047154E+08
       192   3  6.596850E+08  4.809202E+09  2.555710E+08  1.145633E+09  5.489388E+08  1.047065E+08
       192   4  3.792480E+08  4.080944E+09  9.669225E+08  6.062948E+08  3.977871E+08 -5.143899E+08
       192   5  1.220965E+09  6.369177E+09  1.286117E+09  1.855361E+09  2.999629E+08 -3.571735E+08
       192   6  2.652749E+08  4.601253E+09  1.194441E+09  9.956179E+08  3.061965E+08 -5.896137E+08
       192   7  1.736129E+09  8.311713E+09  1.629258E+09  1.669147E+09  5.678597E+08 -3.523165E+08
       192   8  9.849132E+08  6.803965E+09  1.965528E+09  8.112942E+08  5.234397E+08 -8.955568E+08
       193   1  2.343940E+08 -2.565690E+09  1.493706E+09 -8.452852E+08  3.043138E+08 -6.964505E+07
       193   2 -1.177229E+09 -5.583851E+09  1.062450E+08 -2.097125E+09 -5.872065E+08 -6.070674E+08
       193   3 -9.461445E+08 -6.091503E+09  9.731038E+08 -4.220044E+08  4.994879E+08 -2.655662E+08
       193   4 -2.069257E+09 -8.728492E+09  1.663855E+08 -1.673402E+09 -4.274307E+08 -1.655456E+08
       193   5  1.381354E+07 -4.489806E+09  8.502966E+08 -1.516821E+09 -5.067920E+07 -2.851166E+08
       193   6 -1.869359E+09 -8.804704E+09 -1.067650E+09 -3.310193E+09 -1.074271E+09 -9.126328E+08
       193   7 -2.000516E+09 -9.888206E+09 -4.822185E+08 -8.572258E+08  1.935219E+08 -6.057490E+08
       193   8 -3.563344E+09 -1.374779E+10 -1.787630E+09 -2.651661E+09 -8.655605E+08 -5.908430E+08
       194   1 -3.921245E+08 -2.108713E+09 -1.310916E+08 -4.727998E+08  4.422063E+08 -4.418804E+08
       194   2 -1.362447E+09 -4.628821E+09 -9.605292E+08 -2.071868E+08  6.623880E+08 -7.199335E+08
       194   3 -1.224546E+09 -3.969959E+09 -7.344223E+08 -1.303768E+09 -6.284090E+08 -9.388046E+08
       194   4 -2.112301E+09 -6.346634E+09 -1.431850E+09 -1.037371E+09 -3.879233E+08 -5.565583E+08
       194   5  1.564245E+08 -3.035339E+08  5.750267E+08 -1.266863E+08  4.979397E+08 -3.104745E+08
       194   6 -1.163335E+07 -8.868556E+08  5.673046E+08 -5.551553E+07  7.104947E+08 -5.691274E+08
       194   7  1.985970E+07 -7.157715E+08  6.151559E+08 -3.493435E+08 -5.521305E+08 -7.933837E+08
       194   8 -9.895605E+07 -1.233542E+09  7.060813E+08 -2.779628E+08 -3.192571E+08 -3.925117E+08
       195   1 -1.564245E+08  3.035339E+08 -5.750267E+08  1.266863E+08  4.979397E+08 -3.104745E+08
       195   2  1.163335E+07  8.868556E+08 -5.673046E+08  5.551553E+07  7.104947E+08 -5.691274E+08
       195   3 -1.985970E+07  7.157715E+08 -6.151559E+08  3.493435E+08 -5.521305E+08 -7.933837E+08
       195   4  9.895605E+07  1.233542E+09 -7.060813E+08  2.779628E+08 -3.192571E+08 -3.925117E+08
       195   5  3.921245E+08  2.108713E+09  1.310916E+08  4.727998E+08  4.422063E+08 -4.418804E+08
       195   6  1.362447E+09  4.628821E+09  9.605292E+08  2.071868E+08  6.623880E+08 -7.199335E+08
       195   7  1.224546E+09  3.969959E+09  7.344223E+08  1.303768E+09 -6.284090E+08 -9.388046E+08
       195   8  2.112301E+09  6.346634E+09  1.431850E+09  1.037371E+09 -3.879233E+08 -5.565583E+08
       196   1 -2.343940E+08  2.565690E+09 -1.493706E+09  8.452852E+08  3.043138E+08 -6.964505E+07
       196   2  9.461445E+08  6.091503E+09 -9.731038E+08  4.220044E+08  4.994879E+08 -2.655662E+08
       196   3  1.177229E+09  5.583851E+09 -1.062450E+08  2.097125E+09 -5.872065E+08 -6.070674E+08
       196   4  2.069257E+09  8.728492E+09 -1.663855E+08  1.673402E+09 -4.274307E+08 -1.655456E+08
       196   5 -1.381354E+07  4.489806E+09 -8.502966E+08  1.516821E+09 -5.067920E+07 -2.851166E+08
       196   6  2.000516E+09  9.888206E+09  4.822186E+08  8.572258E+08  1.935219E+08 -6.057490E+08
       196   7  1.869359E+09  8.804704E+09  1.067650E+09  3.310193E+09 -1.074271E+09 -9.126328E+08
       196   8  3.563344E+09  1.374779E+10  1.787630E+09  2.651661E+09 -8.655605E+08 -5.908430E+08
       197   1  4.748138E+06 -5.550971E+09  8.266693E+07 -9.211244E+08  5.065588E+08  8.133684E+07
       197   2 -4.858188E+08 -6.741279E+09  1.717041E+08 -6.026474E+08  5.074715E+08  1.582098E+08
       197   3 -8.997679E+08 -5.434460E+09 -1.432286E+09 -5.734351E+08  4.030446E+08 -7.428453E+08
       197   4 -1.667959E+09 -6.939282E+09 -1.955216E+09 -2.480760E+08  4.961295E+08 -9.813001E+08
       197   5 -8.932388E+08 -9.687270E+09 -1.427619E+09 -1.327186E+09  4.464067E+08 -5.427887E+08
       197   6 -1.881871E+09 -1.181770E+10 -1.770039E+09 -8.243903E+08  5.016991E+08 -6.085603E+08
       197   7 -1.850285E+09 -9.021122E+09 -2.793440E+09 -7.547237E+08  5.075341E+08 -1.254659E+09
       197   8 -3.133295E+09 -1.150561E+10 -3.764715E+09 -2.413504E+08  6.548898E+08 -1.642110E+09
       198   1 -2.840927E+08 -3.730931E+09 -7.753033E+08 -6.092481E+08  5.930714E+08 -2.774387E+07
       198   2 -5.818192E+08 -3.397229E+09 -1.078710E+09 -3.999205E+08  3.712419E+08 -6.149469E+08
       198   3 -7.088086E+08 -4.579902E+09 -1.004257E+09 -4.112813E+08  5.889412E+08  1.260164E+06
       198   4 -1.087716E+09 -4.349899E+09 -1.475242E+09 -1.975929E+08  4.446865E+08 -8.151961E+08
       198   5  1.051462E+08 -8.184312E+08  2.152182E+08 -1.632475E+08  6.107847E+08  1.276320E+08
       198   6 -1.073272E+08 -8.617139E+08 -1.757075E+08 -1.071584E+08  3.463772E+08 -4.886161E+08
       198   7  5.602583E+07 -9.812305E+08  3.047947E+08 -1.102025E+08  5.925914E+08  1.935254E+08
       198   8 -2.255503E+08 -1.099650E+09 -2.415181E+08 -5.294486E+07  4.057868E+08 -6.503333E+08
       199   1 -1.051462E+08  8.184312E+08 -2.152182E+08  1.632475E+08  6.107847E+08  1.276320E+08
       199   2  1.073272E+08  8.617139E+08  1.757075E+08  1.071584E+08  3.463772E+08 -4.886161E+08
       199   3 -5.602583E+07  9.812305E+08 -3.047947E+08  1.102025E+08  5.925914E+08  1.935254E+08
       199   4  2.255503E+08  1.099650E+09  2.415181E+08  5.294486E+07  4.057868E+08 -6.503333E+08
       199   5  2.840927E+08  3.730931E+09  7.753033E+08  6.092481E+08  5.930714E+08 -2.774387E+07
       199   6  5.818192E+08  3.397229E+09  1.078710E+09  3.999205E+08  3.712419E+08 -6.149469E+08
       199   7  7.088086E+08  4.579902E+09  1.004257E+09  4.112813E+08  5.889412E+08  1.260166E+06
       199   8  1.087716E+09  4.349899E+09  1.475242E+09  1.975929E+08  4.446865E+08 -8.151961E+08
       200   1 -4.748139E+06  5.550971E+09 -8.266693E+07  9.211244E+08  5.065588E+08  8.133684E+07
       200   2  8.997679E+08  5.434460E+09  1.432286E+09  5.734351E+08  4.030446E+08 -7.428453E+08
       200   3  4.858188E+08  6.741279E+09 -1.717041E+08  6.026474E+08  5.074715E+08  1.582098E+08
       200   4  1.667959E+09  6.939282E+09  1.955216E+09  2.480760E+08  4.961295E+08 -9.813001E+08
       200   5  8.932388E+08  9.687270E+09  1.427619E+09  1.327186E+09  4.464067E+08 -5.427887E+08
       200   6  1.850285E+09  9.021122E+09  2.793440E+09  7.547237E+08  5.075341E+08 -1.254659E+09
       200   7  1.881871E+09  1.181770E+10  1.770039E+09  8.243903E+08  5.016991E+08 -6.085603E+08
       200   8  3.133295E+09  1.150561E+10  3.764715E+09  2.413504E+08  6.548898E+08 -1.642110E+09
       201   1 -1.007740E+09 -7.487744E+09  4.580146E+08 -5.662311E+07  2.892456E+08 -1.236237E+08
       201   2 -2.805181E+09 -8.696239E+09 -2.644794E+09  3.015136E+07  4.562263E+08 -1.592430E+09
       201   3 -8.008396E+08 -7.028384E+09  3.287162E+08 -2.686791E+08  3.481140E+08  4.199089E+07
       201   4 -2.428201E+09 -8.051728E+09 -2.426549E+09 -1.975113E+08  4.033962E+08 -1.273708E+09
       201   5 -2.965245E+09 -1.340730E+10 -1.905104E+09  2.136726E+07  3.613991E+08 -1.043385E+09
       201   6 -5.018090E+09 -1.451018E+10 -5.052849E+09  1.941938E+08  6.279369E+08 -2.459371E+09
       201   7 -2.491273E+09 -1.247493E+10 -1.812378E+09 -3.141333E+08  3.989592E+08 -7.897140E+08
       201   8 -4.353643E+09 -1.335936E+10 -4.596472E+09 -1.661788E+08  5.517698E+08 -2.046563E+09
       202   1 -1.179909E+09 -5.146781E+09 -1.173763E+09 -6.717112E+07  3.668659E+08 -3.655701E+08
       202   2 -9.803003E+08 -4.807513E+09 -1.074932E+09 -1.987790E+08  4.149181E+08 -1.587308E+08
       202   3 -1.828173E+09 -5.434776E+09 -1.984824E+09 -2.357533E+07  4.077689E+08 -1.375460E+09
       202   4 -1.583423E+09 -5.042204E+09 -1.810464E+09 -1.648172E+08  3.597389E+08 -1.076478E+09
       202   5 -1.028072E+07 -1.073201E+09  3.991992E+08 -1.799845E+07  3.428200E+08 -1.475547E+08
       202   6  1.666803E+07 -1.008831E+09  3.637631E+08 -5.326268E+07  3.949880E+08  4.227598E+07
       202   7 -4.078986E+08 -1.374285E+09 -3.405945E+08 -6.316991E+06  3.644928E+08 -1.167647E+09
       202   8 -3.494284E+08 -1.276206E+09 -3.104656E+08 -4.416263E+07  3.209706E+08 -8.868390E+08
       203   1  1.028072E+07  1.073201E+09 -3.991992E+08  1.799845E+07  3.428200E+08 -1.475547E+08
       203   2 -1.666803E+07  1.008831E+09 -3.637631E+08  5.326268E+07  3.949880E+08  4.227598E+07
       203   3  4.078986E+08  1.374285E+09  3.405945E+08  6.316991E+06  3.644928E+08 -1.167647E+09
       203   4  3.494284E+08  1.276206E+09  3.104656E+08  4.416263E+07  3.209706E+08 -8.868390E+08
       203   5  1.179909E+09  5.146781E+09  1.173763E+09  6.717112E+07  3.668659E+08 -3.655701E+08
       203   6  9.803002E+08  4.807513E+09  1.074932E+09  1.987790E+08  4.149181E+08 -1.587308E+08
       203   7  1.828173E+09  5.434776E+09  1.984824E+09  2.357533E+07  4.077689E+08 -1.375460E+09
       203   8  1.583423E+09  5.042204E+09  1.810464E+09  1.648172E+08  3.597389E+08 -1.076478E+09
       204   1  1.007740E+09  7.487744E+09 -4.580146E+08  5.662311E+07  2.892456E+08 -1.236237E+08
       204   2  8.008396E+08  7.028384E+09 -3.287162E+08  2.686791E+08  3.481140E+08  4.199089E+07
       204   3  2.805181E+09  8.696239E+09  2.644794E+09 -3.015136E+07  4.562263E+08 -1.592429E+09
       204   4  2.428201E+09  8.051728E+09  2.426549E+09  1.975113E+08  4.033962E+08 -1.273708E+09
       204   5  2.965245E+09  1.340730E+10  1.905104E+09 -2.136726E+07  3.613991E+08 -1.043385E+09
       204   6  2.491273E+09  1.247493E+10  1.812378E+09  3.141333E+08  3.989592E+08 -7.897140E+08
       204   7  5.018090E+09  1.451018E+10  5.052849E+09 -1.941938E+08  6.279369E+08 -2.459371E+09
       204   8  4.353643E+09  1.335936E+10  4.596472E+09  1.661788E+08  5.517698E+08 -2.046563E+09
       205   1 -1.424868E+09 -7.794149E+09  4.075896E+08  2.654629E+07  2.359789E+08 -2.475670E+08
       205   2 -1.436660E+09 -7.772019E+09  5.367684E+08  1.736698E+08  1.833192E+08 -4.005532E+08
       205   3 -3.333720E+09 -9.370373E+09 -2.960946E+09 -4.602961E+07  3.232968E+08 -1.869598E+09
       205   4 -3.404358E+09 -9.404971E+09 -2.958735E+09  1.121495E+08  3.356409E+08 -2.088811E+09
       205   5 -3.796735E+09 -1.411866E+10 -2.201324E+09  1.042266E+08  3.238303E+08 -1.208645E+09
       205   6 -3.907276E+09 -1.426714E+10 -2.152954E+09  3.177939E+08  2.760604E+08 -1.394172E+09
       205   7 -5.903174E+09 -1.571102E+10 -5.633977E+09  4.995140E+07  4.475264E+08 -2.813289E+09
       205   8 -6.079677E+09 -1.592893E+10 -5.718517E+09  2.795041E+08  4.650800E+08 -3.067491E+09
       206   1 -1.450577E+09 -5.332839E+09 -1.285623E+09 -1.487981E+06  3.063832E+08 -5.295435E+08
       206   2 -2.158520E+09 -5.830828E+09 -2.196003E+09 -6.400974E+07  2.965297E+08 -1.634719E+09
       206   3 -1.485332E+09 -5.320097E+09 -1.286327E+09  9.536402E+07  2.344169E+08 -7.453106E+08
       206   4 -2.198129E+09 -5.819658E+09 -2.202953E+09  4.013841E+07  3.022155E+08 -1.860750E+09
       206   5 -7.218085E+07 -1.112430E+09  3.940182E+08 -3.987034E+05  2.756427E+08 -3.073528E+08
       206   6 -4.935678E+08 -1.477560E+09 -3.905368E+08 -1.715136E+07  2.643142E+08 -1.413234E+09
       206   7 -7.900158E+07 -1.106524E+09  3.996445E+08  2.555271E+07  2.034780E+08 -5.218006E+08
       206   8 -5.035133E+08 -1.473899E+09 -3.908411E+08  1.075505E+07  2.697888E+08 -1.637846E+09
       207   1  7.218085E+07  1.112430E+09 -3.940182E+08  3.987034E+05  2.756427E+08 -3.073529E+08
       207   2  4.935678E+08  1.477560E+09  3.905368E+08  1.715136E+07  2.643142E+08 -1.413234E+09
       207   3  7.900158E+07  1.106524E+09 -3.996445E+08 -2.555271E+07  2.034780E+08 -5.218006E+08
       207   4  5.035133E+08  1.473899E+09  3.908411E+08 -1.075505E+07  2.697888E+08 -1.637846E+09
       207   5  1.450577E+09  5.332839E+09  1.285623E+09  1.487981E+06  3.063832E+08 -5.295435E+08
       207   6  2.158520E+09  5.830828E+09  2.196003E+09  6.400974E+07  2.965297E+08 -1.634719E+09
       207   7  1.485332E+09  5.320097E+09  1.286327E+09 -9.536402E+07  2.344169E+08 -7.453106E+08
       207   8  2.198129E+09  5.819657E+09  2.202953E+09 -4.013841E+07  3.022155E+08 -1.860750E+09
       208   1  1.424868E+09  7.794149E+09 -4.075896E+08 -2.654629E+07  2.359789E+08 -2.475670E+08
       208   2  3.333720E+09  9.370373E+09  2.960946E+09  4.602961E+07  3.232968E+08 -1.869598E+09
       208   3  1.436660E+09  7.772019E+09 -5.367684E+08 -1.736698E+08  1.833192E+08 -4.005532E+08
       208   4  3.404358E+09  9.404971E+09  2.958735E+09 -1.121495E+08  3.356409E+08 -2.088811E+09
       208   5  3.796735E+09  1.411866E+10  2.201324E+09 -1.042266E+08  3.238303E+08 -1.208645E+09
       208   6  5.903174E+09  1.571102E+10  5.633977E+09 -4.995140E+07  4.475264E+08 -2.813289E+09
       208   7  3.907276E+09  1.426714E+10  2.152954E+09 -3.177939E+08  2.760604E+08 -1.394172E+09
       208   8  6.079677E+09  1.592893E+10  5.718517E+09 -2.795041E+08  4.650800E+08 -3.067491E+09
       209   1 -1.773038E+09 -8.108621E+09  4.004342E+08  2.530909E+07  1.140216E+08 -4.875423E+08
       209   2 -1.721117E+09 -7.978511E+09  5.080790E+08  1.456004E+08  7.444977E+07 -5.347953E+08
       209   3 -3.700485E+09 -9.783378E+09 -3.143528E+09 -6.024696E+07  1.333942E+08 -2.272857E+09
       209   4 -3.665339E+09 -9.666065E+09 -3.083579E+09  6.990665E+07  1.256727E+08 -2.343438E+09
       209   5 -4.532153E+09 -1.490493E+10 -2.466193E+09  6.843217E+07  1.533006E+08 -1.516756E+09
       209   6 -4.491024E+09 -1.478717E+10 -2.365490E+09  2.204205E+08  1.141518E+08 -1.570937E+09
       209   7 -6.583618E+09 -1.662971E+10 -6.062368E+09 -2.682817E+07  1.805619E+08 -3.299262E+09
       209   8 -6.559109E+09 -1.652529E+10 -6.009478E+09  1.375199E+08  1.732335E+08 -3.377323E+09
       210   1 -1.695403E+09 -5.526681E+09 -1.408255E+09  7.512093E+06  1.683323E+08 -8.578772E+08
       210   2 -2.379205E+09 -6.032555E+09 -2.320323E+09 -5.716245E+07  1.314807E+08 -2.035428E+09
       210   3 -1.674038E+09 -5.443202E+09 -1.374320E+09  9.323273E+07  8.342212E+07 -9.402455E+08
       210   4 -2.354497E+09 -5.942393E+09 -2.285197E+09  3.561538E+07  1.115233E+08 -2.113661E+09
       210   5 -1.339940E+08 -1.160582E+09  3.699973E+08  2.012859E+06  1.553600E+08 -6.273852E+08
       210   6 -5.516852E+08 -1.530597E+09 -4.214801E+08 -1.531663E+07  1.196614E+08 -1.804526E+09
       210   7 -1.272212E+08 -1.137166E+09  3.815357E+08  2.498163E+07  7.051157E+07 -7.107663E+08
       210   8 -5.447839E+08 -1.506158E+09 -4.114128E+08  9.543113E+06  9.976150E+07 -1.883852E+09
       211   1  1.339940E+08  1.160582E+09 -3.699973E+08 -2.012859E+06  1.553600E+08 -6.273852E+08
       211   2  5.516852E+08  1.530597E+09  4.214801E+08  1.531663E+07  1.196614E+08 -1.804526E+09
       211   3  1.272212E+08  1.137166E+09 -3.815357E+08 -2.498163E+07  7.051157E+07 -7.107663E+08
       211   4  5.447839E+08  1.506158E+09  4.114128E+08 -9.543113E+06  9.976150E+07 -1.883852E+09
       211   5  1.695403E+09  5.526681E+09  1.408255E+09 -7.512093E+06  1.683323E+08 -8.578772E+08
       211   6  2.379205E+09  6.032555E+09  2.320323E+09  5.716245E+07  1.314807E+08 -2.035428E+09
       211   7  1.674038E+09  5.443202E+09  1.374320E+09 -9.323273E+07  8.342212E+07 -9.402455E+08
       211   8  2.354497E+09  5.942393E+09  2.285197E+09 -3.561538E+07  1.115233E+08 -2.113661E+09
       212   1  1.773038E+09  8.108621E+09 -4.004343E+08 -2.530909E+07  1.140216E+08 -4.875423E+08
       212   2  3.700485E+09  9.783378E+09  3.143528E+09  6.024696E+07  1.333942E+08 -2.272857E+09
       212   3  1.721117E+09  7.978511E+09 -5.080790E+08 -1.456004E+08  7.444977E+07 -5.347953E+08
       212   4  3.665339E+09  9.666065E+09  3.083579E+09 -6.990665E+07  1.256727E+08 -2.343438E+09
       212   5  4.532153E+09  1.490493E+10  2.466193E+09 -6.843217E+07  1.533006E+08 -1.516756E+09
       212   6  6.583618E+09  1.662971E+10  6.062368E+09  2.682817E+07  1.805619E+08 -3.299262E+09
       212   7  4.491024E+09  1.478717E+10  2.365490E+09 -2.204205E+08  1.141518E+08 -1.570937E+09
       212   8  6.559109E+09  1.652529E+10  6.009478E+09 -1.375199E+08  1.732335E+08 -3.377323E+09
       213   1 -1.796428E+09 -8.131843E+09  4.511495E+08 -3.799683E+07 -3.256340E+07 -5.528263E+08
       213   2 -1.733097E+09 -7.989323E+09  4.917352E+08  8.214145E+07 -6.951730E+07 -5.001576E+08
       213   3 -3.749757E+09 -9.830673E+09 -3.155162E+09 -1.211408E+08 -1.173873E+08 -2.405943E+09
       213   4 -3.664296E+09 -9.663610E+09 -3.085077E+09  9.491240E+06 -1.247126E+08 -2.338105E+09
       213   5 -4.623697E+09 -1.502753E+10 -2.465736E+09 -7.408845E+07 -5.158460E+07 -1.599548E+09
       213   6 -4.503160E+09 -1.475650E+10 -2.369438E+09  7.452661E+07 -8.799731E+07 -1.526949E+09
       213   7 -6.704717E+09 -1.680997E+10 -6.135440E+09 -2.074365E+08 -1.597185E+08 -3.458202E+09
       213   8 -6.555771E+09 -1.650326E+10 -6.004415E+09 -4.539623E+07 -1.661214E+08 -3.368813E+09
       214   1 -1.721590E+09 -5.543724E+09 -1.417716E+09 -1.954841E+07 -2.992146E+07 -9.615937E+08
       214   2 -2.404675E+09 -6.038815E+09 -2.328903E+09 -7.062934E+07 -1.000057E+08 -2.170217E+09
       214   3 -1.678338E+09 -5.458600E+09 -1.378882E+09  6.698114E+07 -1.172978E+08 -9.032823E+08
       214   4 -2.352970E+09 -5.944740E+09 -2.285082E+09  2.333015E+07 -1.211700E+08 -2.107712E+09
       214   5 -1.395294E+08 -1.163667E+09  3.709188E+08 -5.237979E+06 -2.345014E+07 -7.285354E+08
       214   6 -5.581129E+08 -1.531878E+09 -4.228527E+08 -1.892508E+07 -8.995306E+07 -1.936308E+09
       214   7 -1.278043E+08 -1.140722E+09  3.816414E+08  1.794754E+07 -1.109097E+08 -6.732861E+08
       214   8 -5.442223E+08 -1.506634E+09 -4.110262E+08  6.251296E+06 -1.112590E+08 -1.877114E+09
       215   1  1.395294E+08  1.163667E+09 -3.709188E+08  5.237979E+06 -2.345014E+07 -7.285354E+08
       215   2  5.581129E+08  1.531878E+09  4.228527E+08  1.892508E+07 -8.995306E+07 -1.936308E+09
       215   3  1.278043E+08  1.140722E+09 -3.816414E+08 -1.794754E+07 -1.109097E+08 -6.732861E+08
       215   4  5.442223E+08  1.506634E+09  4.110262E+08 -6.251296E+06 -1.112590E+08 -1.877114E+09
       215   5  1.721590E+09  5.543724E+09  1.417716E+09  1.954841E+07 -2.992146E+07 -9.615937E+08
       215   6  2.404675E+09  6.038815E+09  2.328903E+09  7.062934E+07 -1.000057E+08 -2.170217E+09
       215   7  1.678338E+09  5.458600E+09  1.378882E+09 -6.698114E+07 -1.172978E+08 -9.032823E+08
       215   8  2.352970E+09  5.944740E+09  2.285082E+09 -2.333015E+07 -1.211700E+08 -2.107712E+09
       216   1  1.796428E+09  8.131843E+09 -4.511495E+08  3.799683E+07 -3.256340E+07 -5.528263E+08
       216   2  3.749757E+09  9.830673E+09  3.155162E+09  1.211408E+08 -1.173873E+08 -2.405943E+09
       216   3  1.733097E+09  7.989323E+09 -4.917352E+08 -8.214145E+07 -6.951730E+07 -5.001576E+08
       216   4  3.664296E+09  9.663610E+09  3.085077E+09 -9.491240E+06 -1.247126E+08 -2.338105E+09
       216   5  4.623697E+09  1.502753E+10  2.465736E+09  7.408845E+07 -5.158460E+07 -1.599548E+09
       216   6  6.704717E+09  1.680997E+10  6.135440E+09  2.074365E+08 -1.597185E+08 -3.458202E+09
       216   7  4.503160E+09  1.475650E+10  2.369438E+09 -7.452661E+07 -8.799731E+07 -1.526949E+09
       216   8  6.555771E+09  1.650326E+10  6.004415E+09  4.539623E+07 -1.661214E+08 -3.368813E+09
       217   1 -1.628031E+09 -7.972735E+09  4.841290E+08 -9.635880E+07 -1.598963E+08 -4.337107E+08
       217   2 -1.556982E+09 -7.823308E+09  4.509523E+08  2.986536E+07 -1.951515E+08 -2.833473E+08
       217   3 -3.569671E+09 -9.639356E+09 -3.061231E+09 -1.785100E+08 -3.554766E+08 -2.271493E+09
       217   4 -3.435878E+09 -9.426883E+09 -2.983964E+09 -4.082326E+07 -3.410826E+08 -2.068580E+09
       217   5 -4.264333E+09 -1.462297E+10 -2.301833E+09 -2.035430E+08 -2.325301E+08 -1.444243E+09
       217   6 -4.068980E+09 -1.421404E+10 -2.219868E+09 -2.941761E+07 -2.624320E+08 -1.247679E+09
       217   7 -6.389640E+09 -1.639896E+10 -5.935103E+09 -3.789782E+08 -4.840582E+08 -3.288892E+09
       217   8 -6.118106E+09 -1.590467E+10 -5.731967E+09 -1.877415E+08 -4.627277E+08 -3.036068E+09
       218   1 -1.614409E+09 -5.459596E+09 -1.360673E+09 -4.505438E+07 -2.111890E+08 -8.144244E+08
       218   2 -2.293711E+09 -5.943445E+09 -2.267096E+09 -8.291626E+07 -3.201680E+08 -2.038353E+09
       218   3 -1.550310E+09 -5.372709E+09 -1.317531E+09  4.066759E+07 -2.814559E+08 -6.192604E+08
       218   4 -2.216178E+09 -5.845453E+09 -2.215015E+09  1.021534E+07 -3.173889E+08 -1.838671E+09
       218   5 -1.109578E+08 -1.141273E+09  3.858597E+08 -1.207229E+07 -1.855177E+08 -5.845556E+08
       218   6 -5.284196E+08 -1.506363E+09 -4.063838E+08 -2.221735E+07 -2.883950E+08 -1.807735E+09
       218   7 -9.469204E+07 -1.118901E+09  3.952973E+08  1.089685E+07 -2.563685E+08 -3.944303E+08
       218   8 -5.078885E+08 -1.480350E+09 -3.929975E+08  2.737193E+06 -2.863724E+08 -1.613497E+09
       219   1  1.109578E+08  1.141273E+09 -3.858597E+08  1.207229E+07 -1.855177E+08 -5.845556E+08
       219   2  5.284196E+08  1.506363E+09  4.063838E+08  2.221735E+07 -2.883950E+08 -1.807735E+09
       219   3  9.469204E+07  1.118901E+09 -3.952973E+08 -1.089685E+07 -2.563685E+08 -3.944303E+08
       219   4  5.078885E+08  1.480350E+09  3.929975E+08 -2.737193E+06 -2.863724E+08 -1.613497E+09
       219   5  1.614409E+09  5.459596E+09  1.360673E+09  4.505438E+07 -2.111890E+08 -8.144244E+08
       219   6  2.293711E+09  5.943445E+09  2.267096E+09  8.291626E+07 -3.201680E+08 -2.038353E+09
       219   7  1.550310E+09  5.372709E+09  1.317531E+09 -4.066759E+07 -2.814559E+08 -6.192604E+08
       219   8  2.216178E+09  5.845453E+09  2.215015E+09 -1.021534E+07 -3.173889E+08 -1.838671E+09
       220   1  1.628031E+09  7.972735E+09 -4.841290E+08  9.635880E+07 -1.598963E+08 -4.337107E+08
       220   2  3.569671E+09  9.639356E+09  3.061231E+09  1.785100E+08 -3.554766E+08 -2.271493E+09
       220   3  1.556982E+09  7.823308E+09 -4.509523E+08 -2.986536E+07 -1.951515E+08 -2.833473E+08
       220   4  3.435878E+09  9.426883E+09  2.983964E+09  4.082326E+07 -3.410826E+08 -2.068580E+09
       220   5  4.264333E+09  1.462297E+10  2.301833E+09  2.035430E+08 -2.325301E+08 -1.444243E+09
       220   6  6.389640E+09  1.639896E+10  5.935103E+09  3.789782E+08 -4.840582E+08 -3.288892E+09
       220   7  4.068980E+09  1.421404E+10  2.219868E+09  2.941761E+07 -2.624320E+08 -1.247679E+09
       220   8  6.118106E+09  1.590467E+10  5.731967E+09  1.877415E+08 -4.627277E+08 -3.036068E+09
       221   1 -1.149522E+09 -7.520492E+09  5.593694E+08 -3.323583E+07 -2.140267E+08 -1.429920E+08
       221   2 -9.834366E+08 -7.178868E+09  5.250500E+08  1.283346E+08 -2.574405E+08  8.266932E+07
       221   3 -3.095200E+09 -9.121869E+09 -2.818301E+09 -1.820484E+08 -5.051220E+08 -1.876069E+09
       221   4 -2.813135E+09 -8.660059E+09 -2.645147E+09 -4.192186E+06 -4.489890E+08 -1.542522E+09
       221   5 -3.266282E+09 -1.354850E+10 -1.884061E+09 -1.286428E+08 -3.196956E+08 -1.065634E+09
       221   6 -2.869280E+09 -1.276732E+10 -1.717240E+09  1.296155E+08 -3.484844E+08 -7.691821E+08
       221   7 -5.533248E+09 -1.529250E+10 -5.400906E+09 -4.291313E+08 -7.002437E+08 -2.799735E+09
       221   8 -4.994096E+09 -1.435382E+10 -5.007564E+09 -1.431722E+08 -6.259860E+08 -2.389973E+09
       222   1 -1.298729E+09 -5.194274E+09 -1.194248E+09  1.329334E+06 -2.900980E+08 -4.375628E+08
       222   2 -2.006106E+09 -5.681685E+09 -2.104397E+09 -7.225032E+07 -4.497806E+08 -1.648357E+09
       222   3 -1.157260E+09 -4.974590E+09 -1.099382E+09  1.008446E+08 -3.313988E+08 -1.453463E+08
       222   4 -1.837193E+09 -5.434458E+09 -1.983166E+09  3.681381E+07 -3.989360E+08 -1.320569E+09
       222   5 -2.969791E+07 -1.073506E+09  4.226918E+08  3.561941E+05 -2.507439E+08 -2.173786E+08
       222   6 -4.522475E+08 -1.437116E+09 -3.648684E+08 -1.935942E+07 -3.991600E+08 -1.428044E+09
       222   7  2.515756E+06 -1.020335E+09  4.348275E+08  2.702122E+07 -2.938867E+08  6.592190E+07
       222   8 -4.085127E+08 -1.372397E+09 -3.359441E+08  9.864230E+06 -3.505982E+08 -1.109855E+09
       223   1  2.969791E+07  1.073506E+09 -4.226918E+08 -3.561941E+05 -2.507439E+08 -2.173786E+08
       223   2  4.522475E+08  1.437116E+09  3.648684E+08  1.935942E+07 -3.991600E+08 -1.428044E+09
       223   3 -2.515756E+06  1.020335E+09 -4.348275E+08 -2.702122E+07 -2.938867E+08  6.592190E+07
       223   4  4.085127E+08  1.372397E+09  3.359441E+08 -9.864230E+06 -3.505982E+08 -1.109855E+09
       223   5  1.298729E+09  5.194274E+09  1.194248E+09 -1.329334E+06 -2.900980E+08 -4.375628E+08
       223   6  2.006106E+09  5.681685E+09  2.104397E+09  7.225032E+07 -4.497806E+08 -1.648357E+09
       223   7  1.157260E+09  4.974590E+09  1.099382E+09 -1.008446E+08 -3.313988E+08 -1.453463E+08
       223   8  1.837193E+09  5.434458E+09  1.983166E+09 -3.681381E+07 -3.989360E+08 -1.320569E+09
       224   1  1.149522E+09  7.520492E+09 -5.593694E+08  3.323583E+07 -2.140267E+08 -1.429920E+08
       224   2  3.095200E+09  9.121869E+09  2.818301E+09  1.820484E+08 -5.051220E+08 -1.876069E+09
       224   3  9.834366E+08  7.178868E+09 -5.250500E+08 -1.283346E+08 -2.574405E+08  8.266932E+07
       224   4  2.813135E+09  8.660059E+09  2.645147E+09  4.192186E+06 -4.489890E+08 -1.542522E+09
       224   5  3.266282E+09  1.354850E+10  1.884061E+09  1.286428E+08 -3.196956E+08 -1.065634E+09
       224   6  5.533248E+09  1.529250E+10  5.400906E+09  4.291313E+08 -7.002437E+08 -2.799735E+09
       224   7  2.869280E+09  1.276732E+10  1.717240E+09 -1.296155E+08 -3.484844E+08 -7.691821E+08
       224   8  4.994096E+09  1.435382E+10  5.007564E+09  1.431722E+08 -6.259860E+08 -2.389973E+09
       225   1 -5.552161E+08 -6.625928E+09  5.888689E+08  4.234726E+08 -2.709381E+08  2.180927E+08
       225   2 -1.856594E+08 -5.665831E+09  5.445799E+08  6.444797E+08 -2.889551E+08  3.580744E+08
       225   3 -2.213629E+09 -7.877377E+09 -2.292260E+09 -1.881021E+06 -5.322736E+08 -1.272233E+09
       225   4 -1.594487E+09 -6.636521E+09 -1.853012E+09  2.490445E+08 -4.196269E+08 -9.036454E+08
       225   5 -1.997328E+09 -1.167659E+10 -1.358963E+09  5.539704E+08 -2.988450E+08 -5.622945E+08
       225   6 -1.216597E+09 -9.920632E+09 -1.041142E+09  9.217583E+08 -2.777175E+08 -2.922577E+08
       225   7 -3.993203E+09 -1.299334E+10 -4.360922E+09 -1.491668E+08 -7.330179E+08 -2.035971E+09
       225   8 -2.921566E+09 -1.089522E+10 -3.528746E+09  2.682608E+08 -5.728468E+08 -1.528158E+09
       226   1 -8.666364E+08 -4.612757E+09 -9.450734E+08  2.963109E+08 -3.585519E+08  2.868913E+07
       226   2 -1.458547E+09 -4.962271E+09 -1.739017E+09  4.103423E+07 -4.669452E+08 -1.068267E+09
       226   3 -5.497426E+08 -3.941169E+09 -7.482339E+08  4.282417E+08 -3.520840E+08  2.044048E+08
       226   4 -1.062249E+09 -4.192490E+09 -1.415910E+09  1.908679E+08 -3.644128E+08 -7.371005E+08
       226   5  6.289122E+07 -9.408788E+08  4.353484E+08  7.939626E+07 -3.454608E+08  2.268912E+08
       226   6 -3.117432E+08 -1.250563E+09 -2.814638E+08  1.099509E+07 -4.140855E+08 -8.738960E+08
       226   7  1.056935E+08 -8.030365E+08  3.898366E+08  1.147470E+08 -3.479997E+08  3.726823E+08
       226   8 -2.168385E+08 -1.055584E+09 -2.212147E+08  5.114291E+07 -3.224882E+08 -5.747639E+08
       227   1 -6.289121E+07  9.408788E+08 -4.353484E+08 -7.939626E+07 -3.454608E+08  2.268912E+08
       227   2  3.117432E+08  1.250563E+09  2.814638E+08 -1.099509E+07 -4.140855E+08 -8.738960E+08
       227   3 -1.056935E+08  8.030365E+08 -3.898366E+08 -1.147470E+08 -3.479997E+08  3.726823E+08
       227   4  2.168385E+08  1.055584E+09  2.212147E+08 -5.114291E+07 -3.224882E+08 -5.747639E+08
       227   5  8.666364E+08  4.612757E+09  9.450734E+08 -2.963109E+08 -3.585519E+08  2.868913E+07
       227   6  1.458547E+09  4.962271E+09  1.739017E+09 -4.103423E+07 -4.669452E+08 -1.068267E+09
       227   7  5.497426E+08  3.941169E+09  7.482339E+08 -4.282417E+08 -3.520840E+08  2.044048E+08
       227   8  1.062249E+09  4.192490E+09  1.415910E+09 -1.908679E+08 -3.644128E+08 -7.371005E+08
       228   1  5.552161E+08  6.625928E+09 -5.888689E+08 -4.234726E+08 -2.709381E+08  2.180927E+08
       228   2  2.213629E+09  7.877377E+09  2.292260E+09  1.881021E+06 -5.322736E+08 -1.272233E+09
       228   3  1.856594E+08  5.665831E+09 -5.445799E+08 -6.444797E+08 -2.889551E+08  3.580744E+08
       228   4  1.594487E+09  6.636521E+09  1.853012E+09 -2.490445E+08 -4.196269E+08 -9.036454E+08
       228   5  1.997328E+09  1.167659E+10  1.358963E+09 -5.539704E+08 -2.988450E+08 -5.622945E+08
       228   6  3.993203E+09  1.299334E+10  4.360922E+09  1.491668E+08 -7.330179E+08 -2.035971E+09
       228   7  1.216597E+09  9.920632E+09  1.041142E+09 -9.217583E+08 -2.777175E+08 -2.922577E+08
       228   8  2.921566E+09  1.089522E+10  3.528746E+09 -2.682608E+08 -5.728468E+08 -1.528158E+09
       229   1 -1.028988E+09 -7.244858E+09  1.279423E+09  4.471994E+08  3.938727E+08 -9.233011E+08
       229   2 -7.110912E+08 -6.192708E+09  1.433532E+09  4.348824E+08  4.284420E+08 -5.480936E+08
       229   3 -1.606105E+09 -8.038218E+09  7.297214E+08  8.144767E+07 -2.053912E+08 -9.673696E+07
       229   4 -1.061111E+09 -6.802081E+09  1.445582E+09  7.142083E+07 -1.317871E+08  9.877140E+07
       229   5 -2.307526E+09 -1.152181E+10 -3.872241E+08  5.310016E+08  2.819596E+08 -9.223429E+08
       229   6 -1.782897E+09 -1.001094E+10 -3.347848E+07  4.729425E+08  3.582480E+08 -7.223793E+08
       229   7 -2.932627E+09 -1.252081E+10 -1.013013E+09  5.055307E+07 -1.520631E+08 -8.148920E+06
       229   8 -2.193093E+09 -1.085259E+10 -1.091646E+08 -1.986540E+06 -3.994245E+07  2.225178E+07
       230   1 -1.577047E+09 -5.613782E+09 -1.157214E+09  3.285034E+08  5.520966E+08 -1.689297E+09
       230   2 -1.826486E+09 -5.988254E+09 -1.121093E+09  7.315426E+07 -1.883110E+08 -8.083992E+08
       230   3 -1.304382E+09 -4.834773E+09 -9.028399E+08  3.319940E+08  5.212121E+08 -1.155759E+09
       230   4 -1.541459E+09 -5.226715E+09 -8.176028E+08  7.751872E+07 -2.413450E+08 -4.980095E+08
       230   5 -2.166726E+05 -1.081856E+09  6.754134E+08  8.802223E+07  5.551489E+08 -1.590490E+09
       230   6  2.725164E+07 -1.087891E+09  9.051371E+08  1.960162E+07 -2.046858E+08 -7.198944E+08
       230   7  4.702692E+07 -8.989385E+08  6.833332E+08  8.895751E+07  5.193595E+08 -1.036349E+09
       230   8  9.919846E+07 -8.882629E+08  9.761302E+08  2.077108E+07 -2.622481E+08 -3.900933E+08
       231   1  2.166728E+05  1.081856E+09 -6.754134E+08 -8.802223E+07  5.551489E+08 -1.590490E+09
       231   2 -2.725164E+07  1.087891E+09 -9.051371E+08 -1.960162E+07 -2.046858E+08 -7.198944E+08
       231   3 -4.702692E+07  8.989385E+08 -6.833331E+08 -8.895751E+07  5.193595E+08 -1.036349E+09
       231   4 -9.919846E+07  8.882629E+08 -9.761302E+08 -2.077108E+07 -2.622481E+08 -3.900933E+08
       231   5  1.577047E+09  5.613782E+09  1.157214E+09 -3.285034E+08  5.520966E+08 -1.689297E+09
       231   6  1.826486E+09  5.988254E+09  1.121093E+09 -7.315426E+07 -1.883110E+08 -8.083992E+08
       231   7  1.304382E+09  4.834773E+09  9.028399E+08 -3.319940E+08  5.212121E+08 -1.155759E+09
       231   8  1.541459E+09  5.226715E+09  8.176028E+08 -7.751872E+07 -2.413450E+08 -4.980095E+08
       232   1  1.028988E+09  7.244858E+09 -1.279423E+09 -4.471994E+08  3.938727E+08 -9.233011E+08
       232   2  1.606105E+09  8.038218E+09 -7.297214E+08 -8.144767E+07 -2.053912E+08 -9.673696E+07
       232   3  7.110912E+08  6.192708E+09 -1.433532E+09 -4.348824E+08  4.284420E+08 -5.480936E+08
       232   4  1.061111E+09  6.802081E+09 -1.445582E+09 -7.142083E+07 -1.317871E+08  9.877140E+07
       232   5  2.307526E+09  1.152181E+10  3.872241E+08 -5.310016E+08  2.819596E+08 -9.223429E+08
       232   6  2.932627E+09  1.252081E+10  1.013013E+09 -5.055307E+07 -1.520631E+08 -8.148923E+06
       232   7  1.782897E+09  1.001094E+10  3.347849E+07 -4.729425E+08  3.582480E+08 -7.223793E+08
       232   8  2.193093E+09  1.085259E+10  1.091646E+08  1.986540E+06 -3.994245E+07  2.225178E+07
       233   1 -1.204328E+09 -7.416099E+09  1.314285E+09  5.715574E+08  3.846958E+08 -1.128186E+09
       233   2 -1.722184E+09 -7.794318E+09  7.089748E+08  4.973965E+08  1.130113E+08 -5.633337E+07
       233   3 -1.138569E+09 -7.449788E+09  1.446311E+09  4.847115E+08  3.247704E+08 -1.342708E+09
       233   4 -1.714827E+09 -7.880387E+09  7.054369E+08  4.160111E+08  5.954142E+07 -2.484552E+08
       233   5 -2.775309E+09 -1.181958E+10 -4.780530E+08  7.151923E+08  3.154521E+08 -1.015974E+09
       233   6 -3.344995E+09 -1.221531E+10 -1.104166E+09  6.370657E+08  8.488964E+07  7.551970E+07
       233   7 -2.695153E+09 -1.183650E+10 -3.366793E+08  6.110847E+08  2.488346E+08 -1.186224E+09
       233   8 -3.324080E+09 -1.228564E+10 -1.098914E+09  5.394928E+08  2.510020E+07 -7.509569E+07
       234   1 -1.680992E+09 -5.762389E+09 -1.210286E+09  4.093093E+08  5.356414E+08 -2.005956E+09
       234   2 -1.688479E+09 -5.848992E+09 -1.237644E+09  3.457991E+08  4.677376E+08 -2.328000E+09
       234   3 -1.807034E+09 -5.788210E+09 -1.057703E+09  3.519652E+08  2.070032E+08 -8.312244E+08
       234   4 -1.824202E+09 -5.879690E+09 -1.107495E+09  2.924515E+08  1.762195E+08 -1.111385E+09
       234   5 -1.848448E+07 -1.112092E+09  6.835552E+08  1.096741E+08  5.239263E+08 -1.926000E+09
       234   6 -2.012374E+07 -1.134930E+09  6.770810E+08  9.265660E+07  4.571378E+08 -2.255422E+09
       234   7  3.142520E+07 -1.035327E+09  9.196994E+08  9.430879E+07  1.884352E+08 -7.545415E+08
       234   8  1.956224E+07 -1.067103E+09  8.894109E+08  7.836214E+07  1.587047E+08 -1.041619E+09
       235   1  1.848448E+07  1.112092E+09 -6.835552E+08 -1.096741E+08  5.239263E+08 -1.926000E+09
       235   2  2.012374E+07  1.134930E+09 -6.770810E+08 -9.265660E+07  4.571378E+08 -2.255422E+09
       235   3 -3.142520E+07  1.035327E+09 -9.196994E+08 -9.430879E+07  1.884352E+08 -7.545415E+08
       235   4 -1.956224E+07  1.067103E+09 -8.894109E+08 -7.836214E+07  1.587047E+08 -1.041619E+09
       235   5  1.680992E+09  5.762389E+09  1.210286E+09 -4.093093E+08  5.356414E+08 -2.005956E+09
       235   6  1.688479E+09  5.848992E+09  1.237644E+09 -3.457991E+08  4.677376E+08 -2.328000E+09
       235   7  1.807034E+09  5.788210E+09  1.057703E+09 -3.519652E+08  2.070032E+08 -8.312244E+08
       235   8  1.824202E+09  5.879690E+09  1.107495E+09 -2.924515E+08  1.762195E+08 -1.111385E+09
       236   1  1.204328E+09  7.416099E+09 -1.314285E+09 -5.715574E+08  3.846958E+08 -1.128186E+09
       236   2  1.138569E+09  7.449788E+09 -1.446311E+09 -4.847115E+08  3.247704E+08 -1.342708E+09
       236   3  1.722184E+09  7.794318E+09 -7.089748E+08 -4.973965E+08  1.130113E+08 -5.633337E+07
       236   4  1.714827E+09  7.880387E+09 -7.054369E+08 -4.160111E+08  5.954142E+07 -2.484552E+08
       236   5  2.775309E+09  1.181958E+10  4.780530E+08 -7.151923E+08  3.154521E+08 -1.015974E+09
       236   6  2.695153E+09  1.183650E+10  3.366793E+08 -6.110847E+08  2.488346E+08 -1.186224E+09
       236   7  3.344995E+09  1.221531E+10  1.104166E+09 -6.370657E+08  8.488964E+07  7.551970E+07
       236   8  3.324080E+09  1.228564E+10  1.098914E+09 -5.394928E+08  2.510020E+07 -7.509569E+07
       237   1 -1.302116E+09 -7.752303E+09  1.372965E+09  2.398796E+08  2.054754E+08 -1.481503E+09
       237   2 -1.637877E+09 -8.057709E+09  6.962995E+08  2.324387E+08  1.147592E+08 -3.060933E+08
       237   3 -1.266936E+09 -7.723213E+09  1.451449E+09  2.232158E+08  1.552312E+08 -1.563281E+09
       237   4 -1.615073E+09 -8.040808E+09  7.454376E+08  2.168768E+08  5.853532E+07 -3.701613E+08
       237   5 -3.058021E+09 -1.227369E+10 -5.102234E+08  2.921111E+08  1.676622E+08 -1.289859E+09
       237   6 -3.384944E+09 -1.257456E+10 -1.182876E+09  2.862666E+08  8.569292E+07 -1.113401E+08
       237   7 -3.022263E+09 -1.224212E+10 -4.308205E+08  2.779558E+08  1.167998E+08 -1.362355E+09
       237   8 -3.361655E+09 -1.255536E+10 -1.132903E+09  2.730441E+08  2.883287E+07 -1.667324E+08
       238   1 -1.789008E+09 -6.077784E+09 -1.334426E+09  1.741091E+08  3.134761E+08 -2.529274E+09
       238   2 -1.785693E+09 -6.079822E+09 -1.329408E+09  1.602427E+08  2.091645E+08 -2.661463E+09
       238   3 -1.735066E+09 -5.998660E+09 -1.119554E+09  1.677798E+08  2.256788E+08 -1.218729E+09
       238   4 -1.729139E+09 -5.997912E+09 -1.108849E+09  1.548312E+08  1.237281E+08 -1.333344E+09
       238   5 -4.620954E+07 -1.195384E+09  6.531337E+08  4.665240E+07  3.105731E+08 -2.456221E+09
       238   6 -4.336372E+07 -1.193972E+09  6.590462E+08  4.293690E+07  2.061924E+08 -2.587374E+09
       238   7  4.213282E+07 -1.100294E+09  8.831154E+08  4.495647E+07  2.237526E+08 -1.145329E+09
       238   8  4.739638E+07 -1.096418E+09  8.945595E+08  4.148690E+07  1.217309E+08 -1.258975E+09
       239   1  4.620954E+07  1.195384E+09 -6.531337E+08 -4.665240E+07  3.105731E+08 -2.456221E+09
       239   2  4.336372E+07  1.193972E+09 -6.590462E+08 -4.293690E+07  2.061924E+08 -2.587374E+09
       239   3 -4.213282E+07  1.100294E+09 -8.831154E+08 -4.495647E+07  2.237526E+08 -1.145329E+09
       239   4 -4.739638E+07  1.096418E+09 -8.945595E+08 -4.148690E+07  1.217309E+08 -1.258975E+09
       239   5  1.789008E+09  6.077784E+09  1.334426E+09 -1.741091E+08  3.134761E+08 -2.529274E+09
       239   6  1.785693E+09  6.079822E+09  1.329408E+09 -1.602427E+08  2.091645E+08 -2.661463E+09
       239   7  1.735066E+09  5.998660E+09  1.119554E+09 -1.677798E+08  2.256788E+08 -1.218729E+09
       239   8  1.729139E+09  5.997912E+09  1.108849E+09 -1.548312E+08  1.237281E+08 -1.333344E+09
       240   1  1.302116E+09  7.752303E+09 -1.372965E+09 -2.398796E+08  2.054754E+08 -1.481503E+09
       240   2  1.266936E+09  7.723213E+09 -1.451449E+09 -2.232158E+08  1.552312E+08 -1.563281E+09
       240   3  1.637877E+09  8.057709E+09 -6.962995E+08 -2.324387E+08  1.147592E+08 -3.060933E+08
       240   4  1.615073E+09  8.040807E+09 -7.454376E+08 -2.168768E+08  5.853532E+07 -3.701613E+08
       240   5  3.058021E+09  1.227369E+10  5.102234E+08 -2.921111E+08  1.676622E+08 -1.289859E+09
       240   6  3.022263E+09  1.224212E+10  4.308205E+08 -2.779558E+08  1.167998E+08 -1.362355E+09
       240   7  3.384944E+09  1.257456E+10  1.182876E+09 -2.862666E+08  8.569292E+07 -1.113401E+08
       240   8  3.361655E+09  1.255536E+10  1.132903E+09 -2.730441E+08  2.883287E+07 -1.667324E+08
       241   1 -1.350425E+09 -7.910342E+09  1.383987E+09 -4.777207E+07 -3.661272E+07 -1.627086E+09
       241   2 -1.689083E+09 -8.199248E+09  6.865184E+08 -1.609755E+07  4.320651E+06 -3.889794E+08
       241   3 -1.308668E+09 -7.794279E+09  1.409627E+09 -6.418173E+07 -8.480255E+07 -1.609800E+09
       241   4 -1.642154E+09 -8.083350E+09  7.276907E+08 -3.184129E+07 -4.316216E+07 -3.661642E+08
       241   5 -3.158004E+09 -1.248516E+10 -5.307328E+08 -5.351192E+07 -2.379080E+07 -1.412691E+09
       241   6 -3.509590E+09 -1.277443E+10 -1.232189E+09 -1.525551E+07  8.349136E+06 -1.766689E+08
       241   7 -3.104644E+09 -1.234150E+10 -4.933329E+08 -7.441958E+07 -7.213563E+07 -1.404517E+09
       241   8 -3.451643E+09 -1.263269E+10 -1.179959E+09 -3.528946E+07 -3.917311E+07 -1.623599E+08
       242   1 -1.841797E+09 -6.216605E+09 -1.385707E+09 -3.601969E+07 -4.312961E+07 -2.741829E+09
       242   2 -1.802542E+09 -6.123365E+09 -1.346315E+09 -4.766313E+07 -1.550002E+08 -2.707039E+09
       242   3 -1.769768E+09 -6.108966E+09 -1.152063E+09 -1.293881E+07  1.744882E+07 -1.370415E+09
       242   4 -1.733853E+09 -6.022937E+09 -1.117923E+09 -2.411703E+07 -9.397492E+07 -1.338453E+09
       242   5 -5.773499E+07 -1.229961E+09  6.455043E+08 -9.651446E+06 -4.200657E+07 -2.666956E+09
       242   6 -4.736707E+07 -1.205128E+09  6.557086E+08 -1.277130E+07 -1.539079E+08 -2.633976E+09
       242   7  3.747741E+07 -1.125207E+09  8.852382E+08 -3.466944E+06  1.682539E+07 -1.295956E+09
       242   8  4.606919E+07 -1.103187E+09  8.919791E+08 -6.462139E+06 -9.460618E+07 -1.265684E+09
       243   1  5.773499E+07  1.229961E+09 -6.455043E+08  9.651446E+06 -4.200657E+07 -2.666956E+09
       243   2  4.736707E+07  1.205128E+09 -6.557086E+08  1.277130E+07 -1.539079E+08 -2.633976E+09
       243   3 -3.747741E+07  1.125207E+09 -8.852382E+08  3.466944E+06  1.682539E+07 -1.295956E+09
       243   4 -4.606919E+07  1.103187E+09 -8.919791E+08  6.462139E+06 -9.460618E+07 -1.265684E+09
       243   5  1.841797E+09  6.216605E+09  1.385707E+09  3.601969E+07 -4.312961E+07 -2.741829E+09
       243   6  1.802542E+09  6.123365E+09  1.346315E+09  4.766313E+07 -1.550002E+08 -2.707039E+09
       243   7  1.769768E+09  6.108966E+09  1.152063E+09  1.293881E+07  1.744882E+07 -1.370415E+09
       243   8  1.733853E+09  6.022937E+09  1.117923E+09  2.411703E+07 -9.397492E+07 -1.338453E+09
       244   1  1.350425E+09  7.910342E+09 -1.383987E+09  4.777207E+07 -3.661272E+07 -1.627086E+09
       244   2  1.308668E+09  7.794279E+09 -1.409627E+09  6.418173E+07 -8.480255E+07 -1.609800E+09
       244   3  1.689083E+09  8.199248E+09 -6.865184E+08  1.609755E+07  4.320651E+06 -3.889794E+08
       244   4  1.642154E+09  8.083350E+09 -7.276907E+08  3.184129E+07 -4.316216E+07 -3.661642E+08
       244   5  3.158004E+09  1.248516E+10  5.307328E+08  5.351192E+07 -2.379080E+07 -1.412691E+09
       244   6  3.104644E+09  1.234150E+10  4.933329E+08  7.441958E+07 -7.213563E+07 -1.404517E+09
       244   7  3.509590E+09  1.277443E+10  1.232189E+09  1.525551E+07  8.349136E+06 -1.766689E+08
       244   8  3.451643E+09  1.263269E+10  1.179959E+09  3.528946E+07 -3.917311E+07 -1.623599E+08
       245   1 -1.288164E+09 -7.795698E+09  1.368298E+09 -3.351090E+08 -2.721316E+08 -1.584918E+09
       245   2 -1.624758E+09 -8.070263E+09  7.140013E+08 -2.664770E+08 -9.124706E+07 -3.213931E+08
       245   3 -1.250376E+09 -7.610303E+09  1.328405E+09 -3.502302E+08 -3.281463E+08 -1.478281E+09
       245   4 -1.562103E+09 -7.870474E+09  7.380262E+08 -2.818190E+08 -1.481459E+08 -2.212052E+08
       245   5 -2.990256E+09 -1.230298E+10 -4.945133E+08 -4.046381E+08 -2.065084E+08 -1.385375E+09
       245   6 -3.353046E+09 -1.258347E+10 -1.158448E+09 -3.218666E+08 -5.318877E+07 -1.252228E+08
       245   7 -2.932611E+09 -1.206566E+10 -5.128735E+08 -4.265271E+08 -2.653124E+08 -1.306376E+09
       245   8 -3.271347E+09 -1.233497E+10 -1.114096E+09 -3.437893E+08 -1.122237E+08 -5.085451E+07
       246   1 -1.793365E+09 -6.115907E+09 -1.343582E+09 -2.442208E+08 -3.989328E+08 -2.647720E+09
       246   2 -1.724032E+09 -5.939416E+09 -1.275647E+09 -2.541928E+08 -4.956813E+08 -2.457319E+09
       246   3 -1.736706E+09 -6.016178E+09 -1.122854E+09 -1.941742E+08 -1.928153E+08 -1.266912E+09
       246   4 -1.676108E+09 -5.855990E+09 -1.070851E+09 -2.043744E+08 -2.905081E+08 -1.097911E+09
       246   5 -4.586176E+07 -1.204083E+09  6.542158E+08 -6.543878E+07 -3.942154E+08 -2.576462E+09
       246   6 -2.973887E+07 -1.159247E+09  6.666909E+08 -6.811076E+07 -4.914240E+08 -2.390619E+09
       246   7  4.272711E+07 -1.103954E+09  8.846431E+08 -5.202881E+07 -1.926445E+08 -1.196209E+09
       246   8  5.295346E+07 -1.067043E+09  8.845522E+08 -5.476195E+07 -2.906896E+08 -1.031468E+09
       247   1  4.586176E+07  1.204083E+09 -6.542158E+08  6.543878E+07 -3.942154E+08 -2.576462E+09
       247   2  2.973887E+07  1.159247E+09 -6.666909E+08  6.811076E+07 -4.914240E+08 -2.390619E+09
       247   3 -4.272711E+07  1.103954E+09 -8.846431E+08  5.202881E+07 -1.926445E+08 -1.196209E+09
       247   4 -5.295346E+07  1.067043E+09 -8.845522E+08  5.476195E+07 -2.906896E+08 -1.031468E+09
       247   5  1.793365E+09  6.115907E+09  1.343582E+09  2.442208E+08 -3.989328E+08 -2.647720E+09
       247   6  1.724032E+09  5.939416E+09  1.275647E+09  2.541928E+08 -4.956813E+08 -2.457319E+09
       247   7  1.736706E+09  6.016178E+09  1.122854E+09  1.941742E+08 -1.928153E+08 -1.266912E+09
       247   8  1.676108E+09  5.855990E+09  1.070851E+09  2.043744E+08 -2.905081E+08 -1.097911E+09
       248   1  1.288164E+09  7.795698E+09 -1.368298E+09  3.351090E+08 -2.721316E+08 -1.584918E+09
       248   2  1.250376E+09  7.610303E+09 -1.328405E+09  3.502302E+08 -3.281463E+08 -1.478281E+09
       248   3  1.624758E+09  8.070263E+09 -7.140013E+08  2.664770E+08 -9.124706E+07 -3.213931E+08
       248   4  1.562103E+09  7.870474E+09 -7.380262E+08  2.818190E+08 -1.481459E+08 -2.212052E+08
       248   5  2.990256E+09  1.230298E+10  4.945133E+08  4.046381E+08 -2.065084E+08 -1.385375E+09
       248   6  2.932611E+09  1.206566E+10  5.128735E+08  4.265271E+08 -2.653124E+08 -1.306376E+09
       248   7  3.353046E+09  1.258347E+10  1.158448E+09  3.218666E+08 -5.318877E+07 -1.252228E+08
       248   8  3.271347E+09  1.233497E+10  1.114096E+09  3.437893E+08 -1.122237E+08 -5.085451E+07
       249   1 -1.142568E+09 -7.472696E+09  1.294762E+09 -5.309826E+08 -4.348338E+08 -1.369478E+09
       249   2 -1.651042E+09 -7.803657E+09  6.936330E+08 -4.660376E+08 -7.477037E+07 -1.072366E+08
       249   3 -1.210142E+09 -7.381908E+09  1.115513E+09 -6.037972E+08 -5.109796E+08 -1.179814E+09
       249   4 -1.634883E+09 -7.643028E+09  6.982238E+08 -5.356940E+08 -1.423882E+08  8.707986E+07
       249   5 -2.578236E+09 -1.181416E+10 -4.383763E+08 -6.486944E+08 -3.281729E+08 -1.229174E+09
       249   6 -3.191905E+09 -1.219033E+10 -1.084628E+09 -5.882043E+08 -3.255090E+07  3.234570E+07
       249   7 -2.670601E+09 -1.174531E+10 -6.316449E+08 -7.511293E+08 -4.158740E+08 -1.101476E+09
       249   8 -3.196656E+09 -1.204926E+10 -1.092179E+09 -6.855159E+08 -1.095758E+08  1.686178E+08
       250   1 -1.664914E+09 -5.818499E+09 -1.227769E+09 -3.847923E+08 -6.265029E+08 -2.268963E+09
       250   2 -1.632635E+09 -5.662146E+09 -1.182119E+09 -4.336688E+08 -6.821231E+08 -1.944744E+09
       250   3 -1.779446E+09 -5.810345E+09 -1.091220E+09 -3.322858E+08 -2.182355E+08 -9.212797E+08
       250   4 -1.735237E+09 -5.652586E+09 -1.024760E+09 -3.792387E+08 -2.508396E+08 -6.252002E+08
       250   5 -1.648791E+07 -1.129438E+09  6.734776E+08 -1.031048E+08 -6.187046E+08 -2.201785E+09
       250   6 -1.245880E+07 -1.092163E+09  6.749292E+08 -1.162012E+08 -6.733434E+08 -1.872303E+09
       250   7  2.397124E+07 -1.056105E+09  8.760776E+08 -8.903572E+07 -2.049642E+08 -8.540402E+08
       250   8  3.829565E+07 -1.011355E+09  8.996686E+08 -1.016167E+08 -2.367693E+08 -5.530310E+08
       251   1  1.648791E+07  1.129438E+09 -6.734776E+08  1.031048E+08 -6.187046E+08 -2.201785E+09
       251   2  1.245880E+07  1.092163E+09 -6.749292E+08  1.162012E+08 -6.733434E+08 -1.872303E+09
       251   3 -2.397124E+07  1.056105E+09 -8.760776E+08  8.903572E+07 -2.049642E+08 -8.540402E+08
       251   4 -3.829565E+07  1.011355E+09 -8.996686E+08  1.016167E+08 -2.367693E+08 -5.530310E+08
       251   5  1.664914E+09  5.818499E+09  1.227769E+09  3.847923E+08 -6.265029E+08 -2.268963E+09
       251   6  1.632635E+09  5.662146E+09  1.182119E+09  4.336688E+08 -6.821231E+08 -1.944744E+09
       251   7  1.779446E+09  5.810345E+09  1.091220E+09  3.322858E+08 -2.182355E+08 -9.212797E+08
       251   8  1.735237E+09  5.652586E+09  1.024760E+09  3.792387E+08 -2.508396E+08 -6.252002E+08
       252   1  1.142568E+09  7.472696E+09 -1.294762E+09  5.309826E+08 -4.348338E+08 -1.369478E+09
       252   2  1.210142E+09  7.381908E+09 -1.115513E+09  6.037972E+08 -5.109796E+08 -1.179814E+09
       252   3  1.651042E+09  7.803657E+09 -6.936330E+08  4.660376E+08 -7.477037E+07 -1.072366E+08
       252   4  1.634883E+09  7.643028E+09 -6.982238E+08  5.356940E+08 -1.423882E+08  8.707986E+07
       252   5  2.578236E+09  1.181416E+10  4.383763E+08  6.486944E+08 -3.281729E+08 -1.229174E+09
       252   6  2.670601E+09  1.174531E+10  6.316449E+08  7.511293E+08 -4.158740E+08 -1.101476E+09
       252   7  3.191905E+09  1.219033E+10  1.084628E+09  5.882043E+08 -3.255090E+07  3.234569E+07
       252   8  3.196656E+09  1.204926E+10  1.092179E+09  6.855159E+08 -1.095758E+08  1.686178E+08
       253   1 -1.168553E+09 -7.161709E+09  9.829607E+08 -2.751397E+08 -5.283007E+08 -1.003593E+09
       253   2 -1.304111E+09 -7.293809E+09  9.130063E+08  8.589624E+06  2.231389E+08  1.897416E+08
       253   3 -1.033937E+09 -6.498903E+09  8.316977E+08 -2.308341E+08 -5.449105E+08 -7.245621E+08
       253   4 -9.178196E+08 -6.412094E+09  1.371319E+09  4.271621E+07  1.315492E+08  3.472831E+08
       253   5 -2.360810E+09 -1.135111E+10 -6.315367E+08 -2.525576E+08 -3.609656E+08 -1.023764E+09
       253   6 -2.390347E+09 -1.146485E+10 -6.641763E+08  1.261252E+08  1.907105E+08  1.888360E+08
       253   7 -2.061202E+09 -1.036092E+10 -6.350864E+08 -1.521327E+08 -4.278143E+08 -9.273582E+08
       253   8 -1.852050E+09 -1.027648E+10 -6.826714E+07  2.104099E+08  5.722695E+07  1.745453E+08
       254   1 -1.604682E+09 -5.466135E+09 -1.155612E+09 -2.235148E+08 -7.028325E+08 -1.647606E+09
       254   2 -1.426280E+09 -4.918041E+09 -1.037870E+09 -2.047722E+08 -6.220792E+08 -1.184480E+09
       254   3 -1.621346E+09 -5.454765E+09 -9.395627E+08 -2.715517E+07  1.988621E+08 -4.319226E+08
       254   4 -1.412510E+09 -4.899844E+09 -7.390236E+08 -1.471979E+07  2.636960E+08 -1.277587E+08
       254   5 -2.215063E+07 -1.056824E+09  6.419411E+08 -5.989060E+07 -7.233089E+08 -1.560767E+09
       254   6 -1.666899E+07 -9.522833E+08  5.747410E+08 -5.486855E+07 -6.352258E+08 -1.070996E+09
       254   7  6.530068E+07 -9.618610E+08  9.143024E+08 -7.276205E+06  2.075309E+08 -3.478944E+08
       254   8  1.091842E+08 -8.252440E+08  9.398647E+08 -3.944157E+06  2.784770E+08 -1.866042E+07
       255   1  2.215063E+07  1.056824E+09 -6.419411E+08  5.989060E+07 -7.233089E+08 -1.560767E+09
       255   2  1.666899E+07  9.522833E+08 -5.747410E+08  5.486855E+07 -6.352258E+08 -1.070996E+09
       255   3 -6.530068E+07  9.618610E+08 -9.143024E+08  7.276205E+06  2.075309E+08 -3.478944E+08
       255   4 -1.091842E+08  8.252440E+08 -9.398646E+08  3.944157E+06  2.784770E+08 -1.866042E+07
       255   5  1.604682E+09  5.466135E+09  1.155612E+09  2.235148E+08 -7.028325E+08 -1.647606E+09
       255   6  1.426280E+09  4.918041E+09  1.037870E+09  2.047722E+08 -6.220792E+08 -1.184480E+09
       255   7  1.621346E+09  5.454765E+09  9.395627E+08  2.715517E+07  1.988621E+08 -4.319226E+08
       255   8  1.412510E+09  4.899844E+09  7.390236E+08  1.471979E+07  2.636960E+08 -1.277587E+08
       256   1  1.168553E+09  7.161709E+09 -9.829607E+08  2.751397E+08 -5.283007E+08 -1.003593E+09
       256   2  1.033937E+09  6.498903E+09 -8.316977E+08  2.308341E+08 -5.449105E+08 -7.245621E+08
       256   3  1.304111E+09  7.293809E+09 -9.130063E+08 -8.589623E+06  2.231389E+08  1.897416E+08
       256   4  9.178196E+08  6.412094E+09 -1.371319E+09 -4.271621E+07  1.315492E+08  3.472831E+08
       256   5  2.360810E+09  1.135111E+10  6.315367E+08  2.525576E+08 -3.609656E+08 -1.023764E+09
       256   6  2.061202E+09  1.036092E+10  6.350864E+08  1.521327E+08 -4.278143E+08 -9.273582E+08
       256   7  2.390347E+09  1.146485E+10  6.641763E+08 -1.261252E+08  1.907105E+08  1.888360E+08
       256   8  1.852050E+09  1.027648E+10  6.826714E+07 -2.104099E+08  5.722695E+07  1.745453E+08
       257   1 -1.094459E+09 -7.575935E+09  8.233125E+08 -4.481516E+07 -8.532288E+06 -1.312374E+09
       257   2 -2.072717E+09 -1.043276E+10 -1.184203E+07 -6.292828E+07  1.940637E+08 -1.451079E+09
       257   3 -2.753023E+08 -6.696368E+09  9.289355E+08  8.280866E+08 -1.482764E+08 -1.292753E+08
       257   4 -1.251826E+09 -9.459687E+09  4.960802E+07  7.997069E+08  1.115417E+08  1.048366E+08
       257   5 -2.230803E+09 -1.184702E+10 -7.989165E+08 -5.038339E+07  7.188487E+07 -1.123932E+09
       257   6 -3.744609E+09 -1.601224E+10 -2.187255E+09 -2.189303E+07  2.672679E+08 -1.230794E+09
       257   7 -1.139232E+09 -1.056982E+10 -4.922789E+08  1.178929E+09 -9.706007E+07  5.087622E+07
       257   8 -2.628404E+09 -1.458217E+10 -1.900110E+09  1.190301E+09  1.562737E+08  3.153686E+08
       258   1 -1.380300E+09 -5.587156E+09 -8.544192E+08 -3.373719E+07  4.556031E+06 -2.059600E+09
       258   2 -7.382097E+08 -4.933570E+09 -6.548903E+08  5.518117E+08 -6.495537E+07 -7.988241E+08
       258   3 -2.135862E+09 -7.601191E+09 -1.676874E+09 -6.147582E+07  1.037006E+08 -2.154324E+09
       258   4 -1.465341E+09 -6.857328E+09 -1.440735E+09  5.179540E+08  1.670077E+08 -4.594446E+08
       258   5  1.520813E+08 -9.751425E+08  9.888992E+08 -9.039853E+06  1.797085E+07 -2.133340E+09
       258   6  2.442336E+08 -8.799098E+08  8.559408E+08  1.478575E+08 -5.263228E+07 -8.728744E+08
       258   7 -4.681306E+07 -1.511244E+09  7.768251E+08 -1.647240E+07  1.168457E+08 -2.226874E+09
       258   8  5.337855E+07 -1.391400E+09  6.546590E+08  1.387854E+08  1.790883E+08 -5.323590E+08
       259   1 -1.520813E+08  9.751425E+08 -9.888992E+08  9.039853E+06  1.797085E+07 -2.133340E+09
       259   2 -2.442336E+08  8.799098E+08 -8.559408E+08 -1.478575E+08 -5.263229E+07 -8.728744E+08
       259   3  4.681306E+07  1.511244E+09 -7.768251E+08  1.647240E+07  1.168457E+08 -2.226874E+09
       259   4 -5.337855E+07  1.391400E+09 -6.546590E+08 -1.387854E+08  1.790883E+08 -5.323590E+08
       259   5  1.380300E+09  5.587156E+09  8.544192E+08  3.373719E+07  4.556030E+06 -2.059600E+09
       259   6  7.382097E+08  4.933570E+09  6.548903E+08 -5.518117E+08 -6.495537E+07 -7.988241E+08
       259   7  2.135862E+09  7.601191E+09  1.676874E+09  6.147582E+07  1.037005E+08 -2.154324E+09
       259   8  1.465341E+09  6.857328E+09  1.440735E+09 -5.179540E+08  1.670077E+08 -4.594446E+08
       260   1  1.094459E+09  7.575935E+09 -8.233125E+08  4.481516E+07 -8.532288E+06 -1.312374E+09
       260   2  2.753023E+08  6.696368E+09 -9.289355E+08 -8.280866E+08 -1.482764E+08 -1.292753E+08
       260   3  2.072717E+09  1.043276E+10  1.184203E+07  6.292828E+07  1.940637E+08 -1.451079E+09
       260   4  1.251826E+09  9.459687E+09 -4.960802E+07 -7.997069E+08  1.115417E+08  1.048366E+08
       260   5  2.230803E+09  1.184702E+10  7.989165E+08  5.038339E+07  7.188487E+07 -1.123932E+09
       260   6  1.139232E+09  1.056982E+10  4.922789E+08 -1.178929E+09 -9.706007E+07  5.087622E+07
       260   7  3.744609E+09  1.601224E+10  2.187255E+09  2.189303E+07  2.672679E+08 -1.230794E+09
       260   8  2.628404E+09  1.458217E+10  1.900110E+09 -1.190301E+09  1.562737E+08  3.153686E+08
       261   1 -1.184469E+09 -6.494580E+09  1.007641E+09  2.655010E+08  2.602717E+08 -1.192779E+09
       261   2 -1.135137E+09 -6.604724E+09  6.358499E+08  2.620445E+08  1.220545E+08 -1.370080E+08
       261   3 -1.261494E+09 -6.594965E+09  9.608594E+08  3.538470E+08  1.828699E+08 -1.269309E+09
       261   4 -1.168231E+09 -6.661403E+09  6.804398E+08  3.458409E+08  1.761058E+07 -2.119417E+08
       261   5 -2.551451E+09 -1.034925E+10 -5.588562E+08  3.620646E+08  2.369881E+08 -1.053353E+09
       261   6 -2.441069E+09 -1.043245E+10 -9.042481E+08  3.639173E+08  7.714713E+07 -2.788334E+06
       261   7 -2.636817E+09 -1.044952E+10 -6.081049E+08  4.698971E+08  1.632523E+08 -1.154444E+09
       261   8 -2.481535E+09 -1.048878E+10 -8.617647E+08  4.662507E+08 -2.401083E+07 -1.010740E+08
       262   1 -1.338924E+09 -4.808742E+09 -6.183024E+08  1.815185E+08  3.550363E+08 -1.964337E+09
       262   2 -1.410812E+09 -4.901495E+09 -6.860991E+08  2.455696E+08  2.987904E+08 -2.089295E+09
       262   3 -1.263006E+09 -4.848754E+09 -7.916640E+08  1.772599E+08  2.502565E+08 -8.495699E+08
       262   4 -1.321619E+09 -4.928197E+09 -8.367175E+08  2.379968E+08  1.440108E+08 -9.621593E+08
       262   5  1.590204E+08 -7.707144E+08  1.042489E+09  4.863774E+07  3.590970E+08 -2.038895E+09
       262   6  1.319852E+08 -8.033404E+08  1.006187E+09  6.580017E+07  3.020135E+08 -2.158242E+09
       262   7  1.015962E+08 -8.592020E+08  8.145821E+08  4.749664E+07  2.592575E+08 -9.229381E+08
       262   8  8.435499E+07 -8.820246E+08  7.989263E+08  6.377106E+07  1.522610E+08 -1.030192E+09
       263   1 -1.590204E+08  7.707144E+08 -1.042489E+09 -4.863774E+07  3.590970E+08 -2.038895E+09
       263   2 -1.319852E+08  8.033404E+08 -1.006187E+09 -6.580017E+07  3.020135E+08 -2.158242E+09
       263   3 -1.015962E+08  8.592019E+08 -8.145821E+08 -4.749664E+07  2.592575E+08 -9.229381E+08
       263   4 -8.435499E+07  8.820246E+08 -7.989263E+08 -6.377106E+07  1.522610E+08 -1.030192E+09
       263   5  1.338924E+09  4.808742E+09  6.183024E+08 -1.815185E+08  3.550363E+08 -1.964337E+09
       263   6  1.410812E+09  4.901495E+09  6.860991E+08 -2.455696E+08  2.987904E+08 -2.089295E+09
       263   7  1.263006E+09  4.848754E+09  7.916640E+08 -1.772599E+08  2.502565E+08 -8.495699E+08
       263   8  1.321619E+09  4.928197E+09  8.367175E+08 -2.379968E+08  1.440108E+08 -9.621593E+08
       264   1  1.184469E+09  6.494580E+09 -1.007641E+09 -2.655010E+08  2.602717E+08 -1.192779E+09
       264   2  1.261494E+09  6.594965E+09 -9.608594E+08 -3.538470E+08  1.828699E+08 -1.269309E+09
       264   3  1.135137E+09  6.604724E+09 -6.358499E+08 -2.620445E+08  1.220545E+08 -1.370080E+08
       264   4  1.168231E+09  6.661403E+09 -6.804398E+08 -3.458409E+08  1.761058E+07 -2.119417E+08
       264   5  2.551451E+09  1.034925E+10  5.588562E+08 -3.620646E+08  2.369882E+08 -1.053353E+09
       264   6  2.636817E+09  1.044952E+10  6.081049E+08 -4.698971E+08  1.632523E+08 -1.154444E+09
       264   7  2.441069E+09  1.043245E+10  9.042481E+08 -3.639173E+08  7.714713E+07 -2.788336E+06
       264   8  2.481535E+09  1.048878E+10  8.617647E+08 -4.662507E+08 -2.401083E+07 -1.010740E+08
       265   1 -1.182923E+09 -6.630462E+09  9.858113E+08  2.637800E+08  1.886962E+08 -1.301161E+09
       265   2 -1.448244E+09 -6.830602E+09  5.787686E+08  2.637286E+08  1.019121E+08 -2.356162E+08
       265   3 -1.150720E+09 -6.593678E+09  1.032932E+09  2.268287E+08  1.305155E+08 -1.334181E+09
       265   4 -1.421773E+09 -6.799495E+09  6.149304E+08  2.287016E+08  5.089005E+07 -2.855350E+08
       265   5 -2.682813E+09 -1.053392E+10 -6.351922E+08  3.404183E+08  1.707037E+08 -1.193819E+09
       265   6 -2.980804E+09 -1.074153E+10 -1.054279E+09  3.554759E+08  8.758095E+07 -1.277687E+08
       265   7 -2.619194E+09 -1.042964E+10 -5.584004E+08  2.902743E+08  1.122133E+08 -1.222652E+09
       265   8 -2.924702E+09 -1.064649E+10 -9.900452E+08  3.080117E+08  3.628195E+07 -1.737160E+08
       266   1 -1.319968E+09 -4.922457E+09 -6.679219E+08  1.859132E+08  2.993410E+08 -2.154376E+09
       266   2 -1.309438E+09 -4.918728E+09 -6.528555E+08  1.605790E+08  1.999260E+08 -2.230813E+09
       266   3 -1.492366E+09 -5.050722E+09 -9.214839E+08  1.815110E+08  2.049102E+08 -1.010973E+09
       266   4 -1.481472E+09 -5.046075E+09 -9.043993E+08  1.574765E+08  1.168454E+08 -1.088044E+09
       266   5  1.551496E+08 -8.101344E+08  1.008310E+09  4.981528E+07  3.083158E+08 -2.220232E+09
       266   6  1.625276E+08 -8.045788E+08  1.022979E+09  4.302701E+07  2.088928E+08 -2.296559E+09
       266   7  3.996143E+07 -9.134972E+08  7.793821E+08  4.863574E+07  2.139807E+08 -1.076816E+09
       266   8  4.812694E+07 -9.070056E+08  7.962012E+08  4.219569E+07  1.259086E+08 -1.153783E+09
       267   1 -1.551496E+08  8.101344E+08 -1.008310E+09 -4.981528E+07  3.083158E+08 -2.220232E+09
       267   2 -1.625276E+08  8.045788E+08 -1.022979E+09 -4.302701E+07  2.088928E+08 -2.296559E+09
       267   3 -3.996143E+07  9.134971E+08 -7.793821E+08 -4.863573E+07  2.139807E+08 -1.076816E+09
       267   4 -4.812694E+07  9.070056E+08 -7.962012E+08 -4.219569E+07  1.259086E+08 -1.153783E+09
       267   5  1.319968E+09  4.922457E+09  6.679219E+08 -1.859132E+08  2.993410E+08 -2.154376E+09
       267   6  1.309438E+09  4.918728E+09  6.528555E+08 -1.605790E+08  1.999260E+08 -2.230813E+09
       267   7  1.492366E+09  5.050722E+09  9.214839E+08 -1.815110E+08  2.049102E+08 -1.010973E+09
       267   8  1.481472E+09  5.046075E+09  9.043993E+08 -1.574765E+08  1.168454E+08 -1.088044E+09
       268   1  1.182923E+09  6.630462E+09 -9.858113E+08 -2.637800E+08  1.886962E+08 -1.301161E+09
       268   2  1.150720E+09  6.593678E+09 -1.032932E+09 -2.268287E+08  1.305155E+08 -1.334181E+09
       268   3  1.448244E+09  6.830602E+09 -5.787686E+08 -2.637286E+08  1.019121E+08 -2.356162E+08
       268   4  1.421773E+09  6.799495E+09 -6.149304E+08 -2.287016E+08  5.089006E+07 -2.855350E+08
       268   5  2.682813E+09  1.053392E+10  6.351922E+08 -3.404183E+08  1.707037E+08 -1.193819E+09
       268   6  2.619194E+09  1.042964E+10  5.584004E+08 -2.902743E+08  1.122133E+08 -1.222652E+09
       268   7  2.980804E+09  1.074153E+10  1.054279E+09 -3.554759E+08  8.758095E+07 -1.277687E+08
       268   8  2.924702E+09  1.064649E+10  9.900452E+08 -3.080117E+08  3.628195E+07 -1.737160E+08
       269   1 -1.173131E+09 -6.622699E+09  1.026351E+09  2.114745E+07  1.566409E+07 -1.351236E+09
       269   2 -1.485718E+09 -6.848075E+09  5.875562E+08  2.005767E+07  1.054489E+07 -3.045790E+08
       269   3 -1.173788E+09 -6.622348E+09  1.024011E+09 -2.861948E+07 -2.680203E+07 -1.352251E+09
       269   4 -1.485941E+09 -6.847347E+09  5.862592E+08 -2.708945E+07 -1.895248E+07 -3.045727E+08
       269   5 -2.703437E+09 -1.047309E+10 -5.878591E+08  3.304478E+07  1.657109E+07 -1.237210E+09
       269   6 -3.066293E+09 -1.072013E+10 -1.048233E+09  3.026206E+07  1.111428E+07 -1.905651E+08
       269   7 -2.706168E+09 -1.047753E+10 -5.922580E+08 -3.310009E+07 -2.589521E+07 -1.238610E+09
       269   8 -3.068478E+09 -1.072394E+10 -1.051480E+09 -3.240076E+07 -1.838324E+07 -1.909240E+08
       270   1 -1.311579E+09 -4.939765E+09 -6.568418E+08  1.324401E+07  3.645759E+07 -2.263111E+09
       270   2 -1.312023E+09 -4.938631E+09 -6.593168E+08 -2.127803E+07 -6.826253E+07 -2.260687E+09
       270   3 -1.510035E+09 -5.077698E+09 -9.183661E+08  1.287323E+07  3.285238E+07 -1.116890E+09
       270   4 -1.509706E+09 -5.075877E+09 -9.189716E+08 -1.983153E+07 -5.403278E+07 -1.115097E+09
       270   5  1.632071E+08 -8.089625E+08  1.024835E+09  3.548721E+06  3.540789E+07 -2.329146E+09
       270   6  1.619554E+08 -8.097913E+08  1.021528E+09 -5.701432E+06 -6.931192E+07 -2.326069E+09
       270   7  4.220047E+07 -9.137522E+08  7.964883E+08  3.449371E+06  3.237449E+07 -1.182905E+09
       270   8  4.176045E+07 -9.137923E+08  7.950936E+08 -5.313842E+06 -5.451041E+07 -1.180493E+09
       271   1 -1.632071E+08  8.089625E+08 -1.024835E+09 -3.548721E+06  3.540789E+07 -2.329146E+09
       271   2 -1.619554E+08  8.097913E+08 -1.021528E+09  5.701432E+06 -6.931192E+07 -2.326069E+09
       271   3 -4.220047E+07  9.137521E+08 -7.964883E+08 -3.449371E+06  3.237449E+07 -1.182905E+09
       271   4 -4.176045E+07  9.137922E+08 -7.950936E+08  5.313842E+06 -5.451041E+07 -1.180493E+09
       271   5  1.311579E+09  4.939765E+09  6.568418E+08 -1.324401E+07  3.645759E+07 -2.263111E+09
       271   6  1.312023E+09  4.938631E+09  6.593168E+08  2.127803E+07 -6.826253E+07 -2.260687E+09
       271   7  1.510035E+09  5.077698E+09  9.183661E+08 -1.287323E+07  3.285238E+07 -1.116890E+09
       271   8  1.509706E+09  5.075877E+09  9.189716E+08  1.983153E+07 -5.403278E+07 -1.115097E+09
       272   1  1.173131E+09  6.622699E+09 -1.026351E+09 -2.114745E+07  1.566409E+07 -1.351236E+09
       272   2  1.173788E+09  6.622348E+09 -1.024011E+09  2.861948E+07 -2.680203E+07 -1.352251E+09
       272   3  1.485718E+09  6.848075E+09 -5.875562E+08 -2.005767E+07  1.054489E+07 -3.045790E+08
       272   4  1.485941E+09  6.847347E+09 -5.862593E+08  2.708945E+07 -1.895248E+07 -3.045727E+08
       272   5  2.703437E+09  1.047309E+10  5.878591E+08 -3.304478E+07  1.657109E+07 -1.237210E+09
       272   6  2.706168E+09  1.047753E+10  5.922580E+08  3.310009E+07 -2.589521E+07 -1.238610E+09
       272   7  3.066293E+09  1.072013E+10  1.048233E+09 -3.026206E+07  1.111428E+07 -1.905651E+08
       272   8  3.068478E+09  1.072394E+10  1.051480E+09  3.240076E+07 -1.838324E+07 -1.909240E+08
       273   1 -1.143643E+09 -6.593297E+09  1.029117E+09 -2.355870E+08 -1.409067E+08 -1.337189E+09
       273   2 -1.408562E+09 -6.796172E+09  6.157699E+08 -2.367866E+08 -5.843144E+07 -2.852964E+08
       273   3 -1.177079E+09 -6.629076E+09  9.760340E+08 -2.706678E+08 -2.011870E+08 -1.305469E+09
       273   4 -1.435510E+09 -6.825627E+09  5.755581E+08 -2.700098E+08 -1.122028E+08 -2.342810E+08
       273   5 -2.607792E+09 -1.043838E+10 -5.636523E+08 -2.921921E+08 -1.202658E+08 -1.226458E+09
       273   6 -2.905983E+09 -1.065164E+10 -9.900974E+08 -3.121603E+08 -4.217518E+07 -1.742610E+08
       273   7 -2.677226E+09 -1.055246E+10 -6.510253E+08 -3.403216E+08 -1.809173E+08 -1.199694E+09
       273   8 -2.966873E+09 -1.075522E+10 -1.062728E+09 -3.576561E+08 -9.627777E+07 -1.279409E+08
       274   1 -1.306276E+09 -4.916966E+09 -6.581800E+08 -1.694612E+08 -2.307341E+08 -2.225295E+09
       274   2 -1.317171E+09 -4.917497E+09 -6.782858E+08 -1.933616E+08 -3.308657E+08 -2.142914E+09
       274   3 -1.472549E+09 -5.040913E+09 -9.032616E+08 -1.649892E+08 -1.370007E+08 -1.083542E+09
       274   4 -1.482025E+09 -5.040769E+09 -9.210013E+08 -1.876487E+08 -2.268989E+08 -1.001981E+09
       274   5  1.605023E+08 -8.069792E+08  1.014850E+09 -4.540698E+07 -2.419102E+08 -2.289439E+09
       274   6  1.505392E+08 -8.141652E+08  9.930271E+08 -5.181109E+07 -3.419366E+08 -2.205654E+09
       274   7  4.921372E+07 -9.069266E+08  7.934630E+08 -4.420872E+07 -1.469349E+08 -1.147772E+09
       274   8  4.036478E+07 -9.131977E+08  7.739869E+08 -5.028031E+07 -2.367392E+08 -1.064882E+09
       275   1 -1.605023E+08  8.069792E+08 -1.014850E+09  4.540698E+07 -2.419102E+08 -2.289439E+09
       275   2 -1.505392E+08  8.141652E+08 -9.930270E+08  5.181109E+07 -3.419366E+08 -2.205654E+09
       275   3 -4.921372E+07  9.069266E+08 -7.934630E+08  4.420872E+07 -1.469349E+08 -1.147772E+09
       275   4 -4.036478E+07  9.131977E+08 -7.739869E+08  5.028031E+07 -2.367392E+08 -1.064882E+09
       275   5  1.306276E+09  4.916966E+09  6.581799E+08  1.694612E+08 -2.307341E+08 -2.225295E+09
       275   6  1.317171E+09  4.917497E+09  6.782857E+08  1.933616E+08 -3.308657E+08 -2.142914E+09
       275   7  1.472549E+09  5.040913E+09  9.032616E+08  1.649892E+08 -1.370007E+08 -1.083542E+09
       275   8  1.482025E+09  5.040769E+09  9.210013E+08  1.876487E+08 -2.268989E+08 -1.001981E+09
       276   1  1.143643E+09  6.593297E+09 -1.029117E+09  2.355870E+08 -1.409067E+08 -1.337189E+09
       276   2  1.177079E+09  6.629076E+09 -9.760340E+08  2.706678E+08 -2.011870E+08 -1.305469E+09
       276   3  1.408562E+09  6.796172E+09 -6.157699E+08  2.367866E+08 -5.843144E+07 -2.852964E+08
       276   4  1.435510E+09  6.825627E+09 -5.755581E+08  2.700098E+08 -1.122028E+08 -2.342810E+08
       276   5  2.607792E+09  1.043838E+10  5.636523E+08  2.921921E+08 -1.202658E+08 -1.226458E+09
       276   6  2.677226E+09  1.055246E+10  6.510253E+08  3.403216E+08 -1.809173E+08 -1.199694E+09
       276   7  2.905983E+09  1.065164E+10  9.900974E+08  3.121603E+08 -4.217518E+07 -1.742610E+08
       276   8  2.966873E+09  1.075522E+10  1.062728E+09  3.576561E+08 -9.627777E+07 -1.279409E+08
       277   1 -1.203710E+09 -6.579151E+09  9.645123E+08 -3.623291E+08 -1.962553E+08 -1.273641E+09
       277   2 -1.139802E+09 -6.654334E+09  6.802199E+08 -3.538880E+08 -2.340267E+07 -2.087502E+08
       277   3 -1.142414E+09 -6.495573E+09  9.897229E+08 -2.856989E+08 -2.859113E+08 -1.195353E+09
       277   4 -1.116230E+09 -6.608383E+09  6.275486E+08 -2.813611E+08 -1.332561E+08 -1.297977E+08
       277   5 -2.543921E+09 -1.044539E+10 -5.974232E+08 -4.769011E+08 -1.724765E+08 -1.162478E+09
       277   6 -2.442974E+09 -1.050273E+10 -8.652515E+08 -4.741995E+08  1.877225E+07 -1.007998E+08
       277   7 -2.483180E+09 -1.037455E+10 -5.762008E+08 -3.895140E+08 -2.590629E+08 -1.063779E+09
       277   8 -2.420266E+09 -1.046902E+10 -9.218515E+08 -3.914285E+08 -8.834046E+07 -2.478300E+06
       278   1 -1.377556E+09 -4.887831E+09 -6.903353E+08 -2.526858E+08 -3.300689E+08 -2.073042E+09
       278   2 -1.315594E+09 -4.804778E+09 -6.378949E+08 -1.953548E+08 -3.936634E+08 -1.940965E+09
       278   3 -1.301604E+09 -4.916035E+09 -8.347379E+08 -2.443717E+08 -1.601503E+08 -9.490630E+08
       278   4 -1.249017E+09 -4.842515E+09 -7.963986E+08 -1.901287E+08 -2.698883E+08 -8.294026E+08
       278   5  1.331623E+08 -8.074131E+08  9.870057E+08 -6.770697E+07 -3.362479E+08 -2.137121E+09
       278   6  1.535389E+08 -7.813851E+08  1.009863E+09 -5.234516E+07 -4.002825E+08 -2.007971E+09
       278   7  8.647720E+07 -8.820065E+08  7.918951E+08 -6.547920E+07 -1.689669E+08 -1.012682E+09
       278   8  1.007821E+08 -8.620928E+08  8.026676E+08 -5.094484E+07 -2.790978E+08 -8.957981E+08
       279   1 -1.331623E+08  8.074131E+08 -9.870057E+08  6.770697E+07 -3.362479E+08 -2.137121E+09
       279   2 -1.535389E+08  7.813851E+08 -1.009863E+09  5.234516E+07 -4.002825E+08 -2.007971E+09
       279   3 -8.647720E+07  8.820065E+08 -7.918951E+08  6.547920E+07 -1.689669E+08 -1.012682E+09
       279   4 -1.007821E+08  8.620928E+08 -8.026676E+08  5.094484E+07 -2.790978E+08 -8.957981E+08
       279   5  1.377556E+09  4.887831E+09  6.903353E+08  2.526858E+08 -3.300689E+08 -2.073042E+09
       279   6  1.315594E+09  4.804778E+09  6.378949E+08  1.953548E+08 -3.936634E+08 -1.940965E+09
       279   7  1.301604E+09  4.916035E+09  8.347379E+08  2.443717E+08 -1.601503E+08 -9.490630E+08
       279   8  1.249017E+09  4.842515E+09  7.963986E+08  1.901287E+08 -2.698883E+08 -8.294026E+08
       280   1  1.203710E+09  6.579151E+09 -9.645123E+08  3.623291E+08 -1.962553E+08 -1.273641E+09
       280   2  1.142414E+09  6.495573E+09 -9.897229E+08  2.856989E+08 -2.859113E+08 -1.195353E+09
       280   3  1.139802E+09  6.654334E+09 -6.802199E+08  3.538880E+08 -2.340267E+07 -2.087502E+08
       280   4  1.116230E+09  6.608383E+09 -6.275486E+08  2.813611E+08 -1.332561E+08 -1.297977E+08
       280   5  2.543921E+09  1.044539E+10  5.974232E+08  4.769011E+08 -1.724765E+08 -1.162478E+09
       280   6  2.483180E+09  1.037455E+10  5.762008E+08  3.895140E+08 -2.590629E+08 -1.063779E+09
       280   7  2.442974E+09  1.050273E+10  8.652515E+08  4.741995E+08  1.877225E+07 -1.007998E+08
       280   8  2.420266E+09  1.046902E+10  9.218515E+08  3.914285E+08 -8.834046E+07 -2.478302E+06
       281   1 -1.078473E+09 -7.575188E+09  7.679771E+08  1.198855E+07 -1.550558E+07 -1.319449E+09
       281   2 -2.653565E+08 -6.697628E+09  9.142966E+08 -8.518432E+08  1.479753E+08 -1.228008E+08
       281   3 -2.081128E+09 -1.042257E+10 -1.421420E+08  2.295451E+07 -2.417769E+08 -1.466627E+09
       281   4 -1.229222E+09 -9.411276E+09  4.373822E+07 -8.299578E+08 -1.193208E+08  1.110905E+08
       281   5 -2.160897E+09 -1.187897E+10 -8.478854E+08  7.888938E+06 -7.469915E+07 -1.154931E+09
       281   6 -1.130377E+09 -1.062118E+10 -5.222738E+08 -1.219771E+09  9.604841E+07  3.968026E+07
       281   7 -3.728149E+09 -1.607503E+10 -2.331987E+09 -4.883721E+07 -2.991810E+08 -1.294258E+09
       281   8 -2.632409E+09 -1.461852E+10 -1.939390E+09 -1.257223E+09 -1.696478E+08  2.810424E+08
       282   1 -1.375880E+09 -5.569750E+09 -8.826843E+08  1.063853E+07 -3.799541E+07 -2.025196E+09
       282   2 -2.115852E+09 -7.538271E+09 -1.696551E+09  3.882813E+07 -1.364718E+08 -2.096936E+09
       282   3 -7.307573E+08 -4.920810E+09 -6.636518E+08 -5.656159E+08  5.917884E+07 -7.736438E+08
       282   4 -1.440555E+09 -6.795403E+09 -1.437406E+09 -5.312261E+08 -1.717146E+08 -4.230281E+08
       282   5  1.385628E+08 -9.851813E+08  9.470191E+08  2.850586E+06 -5.334169E+07 -2.090245E+09
       282   6 -6.026905E+07 -1.513202E+09  7.276445E+08  1.040397E+07 -1.513538E+08 -2.159949E+09
       282   7  2.399692E+08 -8.827519E+08  8.389835E+08 -1.515563E+08  4.571774E+07 -8.392213E+08
       282   8  5.043950E+07 -1.384388E+09  6.331965E+08 -1.423416E+08 -1.847607E+08 -4.866674E+08
       283   1 -1.385628E+08  9.851813E+08 -9.470191E+08 -2.850586E+06 -5.334169E+07 -2.090245E+09
       283   2  6.026905E+07  1.513202E+09 -7.276445E+08 -1.040397E+07 -1.513538E+08 -2.159949E+09
       283   3 -2.399692E+08  8.827519E+08 -8.389835E+08  1.515563E+08  4.571774E+07 -8.392213E+08
       283   4 -5.043950E+07  1.384388E+09 -6.331965E+08  1.423416E+08 -1.847607E+08 -4.866674E+08
       283   5  1.375880E+09  5.569750E+09  8.826843E+08 -1.063853E+07 -3.799541E+07 -2.025196E+09
       283   6  2.115852E+09  7.538271E+09  1.696551E+09 -3.882813E+07 -1.364718E+08 -2.096936E+09
       283   7  7.307573E+08  4.920810E+09  6.636518E+08  5.656159E+08  5.917884E+07 -7.736438E+08
       283   8  1.440555E+09  6.795403E+09  1.437406E+09  5.312261E+08 -1.717146E+08 -4.230281E+08
       284   1  1.078473E+09  7.575188E+09 -7.679771E+08 -1.198855E+07 -1.550558E+07 -1.319449E+09
       284   2  2.081128E+09  1.042257E+10  1.421420E+08 -2.295451E+07 -2.417769E+08 -1.466627E+09
       284   3  2.653565E+08  6.697628E+09 -9.142966E+08  8.518432E+08  1.479753E+08 -1.228008E+08
       284   4  1.229222E+09  9.411276E+09 -4.373822E+07  8.299578E+08 -1.193208E+08  1.110905E+08
       284   5  2.160897E+09  1.187897E+10  8.478854E+08 -7.888938E+06 -7.469915E+07 -1.154931E+09
       284   6  3.728149E+09  1.607503E+10  2.331987E+09  4.883721E+07 -2.991810E+08 -1.294258E+09
       284   7  1.130377E+09  1.062118E+10  5.222738E+08  1.219771E+09  9.604841E+07  3.968026E+07
       284   8  2.632409E+09  1.461852E+10  1.939390E+09  1.257223E+09 -1.696478E+08  2.810424E+08
       285   1  1.282133E+08 -5.295791E+09  1.189347E+09  1.278542E+09  1.608021E+08 -1.245803E+09
       285   2  1.681170E+08 -5.085120E+09  1.381484E+09  1.419511E+09  4.483063E+08 -9.700134E+08
       285   3 -5.467842E+08 -5.741676E+09  4.898720E+08  1.196908E+09  2.731888E+07 -1.698457E+08
       285   4 -6.562283E+08 -5.690825E+09  3.186904E+08  1.332429E+09  2.743041E+08  1.300385E+08
       285   5 -5.741495E+08 -8.602934E+09 -1.350478E+07  1.825402E+09  1.713167E+08 -1.093926E+09
       285   6 -5.798171E+08 -8.422977E+09  1.557467E+08  2.022584E+09  4.375421E+08 -7.141869E+08
       285   7 -1.410297E+09 -9.115224E+09 -7.812461E+08  1.733872E+09 -4.928931E+07 -4.268837E+07
       285   8 -1.561337E+09 -9.092906E+09 -9.734663E+08  1.923166E+09  1.784133E+08  3.567097E+08
       286   1 -4.075532E+08 -3.933395E+09 -3.747533E+08  8.504893E+08  2.946376E+08 -1.862099E+09
       286   2 -8.067288E+08 -4.179226E+09 -7.045027E+08  7.889631E+08  2.347455E+08 -7.550990E+08
       286   3 -4.193205E+08 -3.814772E+09 -3.481986E+08  9.454407E+08  5.810811E+08 -1.502642E+09
       286   4 -8.384188E+08 -4.088266E+09 -7.339935E+08  8.803224E+08  4.590283E+08 -3.995360E+08
       286   5  2.825272E+08 -6.622193E+08  8.136235E+08  2.278879E+08  3.072929E+08 -1.914361E+09
       286   6  1.180261E+08 -7.856318E+08  5.910021E+08  2.114020E+08  2.601642E+08 -8.037398E+08
       286   7  2.770504E+08 -6.327580E+08  8.153169E+08  2.533301E+08  5.968537E+08 -1.570133E+09
       286   8  8.957017E+07 -7.812239E+08  5.365159E+08  2.358817E+08  4.872718E+08 -4.627555E+08
       287   1 -2.825272E+08  6.622193E+08 -8.136235E+08 -2.278879E+08  3.072929E+08 -1.914361E+09
       287   2 -1.180261E+08  7.856318E+08 -5.910021E+08 -2.114020E+08  2.601642E+08 -8.037398E+08
       287   3 -2.770504E+08  6.327580E+08 -8.153169E+08 -2.533301E+08  5.968537E+08 -1.570133E+09
       287   4 -8.957017E+07  7.812239E+08 -5.365159E+08 -2.358817E+08  4.872718E+08 -4.627555E+08
       287   5  4.075532E+08  3.933395E+09  3.747533E+08 -8.504893E+08  2.946376E+08 -1.862099E+09
       287   6  8.067288E+08  4.179226E+09  7.045027E+08 -7.889631E+08  2.347455E+08 -7.550990E+08
       287   7  4.193205E+08  3.814772E+09  3.481986E+08 -9.454407E+08  5.810811E+08 -1.502642E+09
       287   8  8.384188E+08  4.088266E+09  7.339935E+08 -8.803224E+08  4.590283E+08 -3.995360E+08
       288   1 -1.282133E+08  5.295791E+09 -1.189347E+09 -1.278542E+09  1.608021E+08 -1.245803E+09
       288   2  5.467841E+08  5.741676E+09 -4.898720E+08 -1.196908E+09  2.731888E+07 -1.698457E+08
       288   3 -1.681170E+08  5.085120E+09 -1.381484E+09 -1.419511E+09  4.483063E+08 -9.700134E+08
       288   4  6.562283E+08  5.690825E+09 -3.186904E+08 -1.332429E+09  2.743041E+08  1.300385E+08
       288   5  5.741495E+08  8.602934E+09  1.350478E+07 -1.825402E+09  1.713167E+08 -1.093926E+09
       288   6  1.410297E+09  9.115224E+09  7.812461E+08 -1.733872E+09 -4.928931E+07 -4.268837E+07
       288   7  5.798171E+08  8.422977E+09 -1.557467E+08 -2.022584E+09  4.375421E+08 -7.141869E+08
       288   8  1.561337E+09  9.092906E+09  9.734663E+08 -1.923166E+09  1.784133E+08  3.567097E+08
       289   1 -9.918790E+08 -6.211609E+09  5.672772E+08  4.144234E+08  3.107376E+08 -1.253976E+09
       289   2 -1.027290E+09 -6.219130E+09  2.809814E+08  5.616000E+08  2.443502E+08 -2.063648E+08
       289   3 -6.896465E+08 -5.550016E+09  9.425264E+08  4.157497E+08  1.736495E+08 -1.218003E+09
       289   4 -7.505022E+08 -5.599657E+09  6.107141E+08  5.640690E+08  9.929154E+07 -2.633763E+08
       289   5 -2.233777E+09 -9.870119E+09 -9.028451E+08  6.090257E+08  2.668564E+08 -1.152368E+09
       289   6 -2.238291E+09 -9.814231E+09 -1.160849E+09  8.295129E+08  2.107523E+08 -1.022838E+08
       289   7 -1.796656E+09 -8.892336E+09 -3.922725E+08  5.997565E+08  1.280484E+08 -1.103656E+09
       289   8 -1.832707E+09 -8.892923E+09 -7.019272E+08  8.224850E+08  6.413873E+07 -1.471349E+08
       290   1 -1.127171E+09 -4.546226E+09 -7.694938E+08  2.706685E+08  4.618031E+08 -1.911181E+09
       290   2 -9.622254E+08 -4.150200E+09 -5.930603E+08  2.747732E+08  3.114602E+08 -1.919664E+09
       290   3 -1.105719E+09 -4.512163E+09 -8.674242E+08  3.655802E+08  4.334189E+08 -8.305552E+08
       290   4 -9.375490E+08 -4.123679E+09 -6.748734E+08  3.702689E+08  2.620247E+08 -9.268133E+08
       290   5  9.181546E+07 -8.243177E+08  7.127746E+08  7.252542E+07  4.707124E+08 -1.956044E+09
       290   6  1.394511E+08 -7.147641E+08  7.680734E+08  7.362527E+07  3.195018E+08 -1.958100E+09
       290   7  4.916996E+07 -8.635839E+08  5.736160E+08  9.795691E+07  4.475159E+08 -8.741701E+08
       290   8  1.050236E+08 -7.486973E+08  6.503928E+08  9.921325E+07  2.753374E+08 -9.642933E+08
       291   1 -9.181546E+07  8.243177E+08 -7.127746E+08 -7.252542E+07  4.707124E+08 -1.956044E+09
       291   2 -1.394511E+08  7.147641E+08 -7.680734E+08 -7.362527E+07  3.195018E+08 -1.958100E+09
       291   3 -4.916996E+07  8.635839E+08 -5.736160E+08 -9.795691E+07  4.475159E+08 -8.741701E+08
       291   4 -1.050236E+08  7.486973E+08 -6.503928E+08 -9.921325E+07  2.753374E+08 -9.642933E+08
       291   5  1.127171E+09  4.546226E+09  7.694938E+08 -2.706685E+08  4.618031E+08 -1.911181E+09
       291   6  9.622253E+08  4.150200E+09  5.930603E+08 -2.747732E+08  3.114602E+08 -1.919664E+09
       291   7  1.105719E+09  4.512163E+09  8.674242E+08 -3.655802E+08  4.334189E+08 -8.305552E+08
       291   8  9.375490E+08  4.123679E+09  6.748734E+08 -3.702689E+08  2.620247E+08 -9.268133E+08
       292   1  9.918790E+08  6.211609E+09 -5.672772E+08 -4.144234E+08  3.107376E+08 -1.253976E+09
       292   2  6.896465E+08  5.550016E+09 -9.425264E+08 -4.157497E+08  1.736495E+08 -1.218003E+09
       292   3  1.027290E+09  6.219130E+09 -2.809814E+08 -5.616000E+08  2.443502E+08 -2.063648E+08
       292   4  7.505022E+08  5.599657E+09 -6.107141E+08 -5.640690E+08  9.929154E+07 -2.633763E+08
       292   5  2.233777E+09  9.870119E+09  9.028451E+08 -6.090257E+08  2.668564E+08 -1.152368E+09
       292   6  1.796656E+09  8.892336E+09  3.922725E+08 -5.997565E+08  1.280484E+08 -1.103656E+09
       292   7  2.238291E+09  9.814231E+09  1.160849E+09 -8.295129E+08  2.107523E+08 -1.022838E+08
       292   8  1.832707E+09  8.892923E+09  7.019272E+08 -8.224850E+08  6.413873E+07 -1.471349E+08
       293   1 -1.031690E+09 -5.519773E+09  8.894802E+08  2.780029E+08  1.654757E+08 -1.193374E+09
       293   2 -1.320726E+09 -5.735313E+09  4.386027E+08  2.912415E+08  1.074242E+08 -2.792690E+08
       293   3 -9.739298E+08 -5.422934E+09  9.603899E+08  2.337617E+08  1.213248E+08 -1.187288E+09
       293   4 -1.252294E+09 -5.629364E+09  5.383952E+08  2.491695E+08  8.796144E+07 -2.953588E+08
       293   5 -2.359880E+09 -8.853364E+09 -5.090542E+08  4.074285E+08  1.488787E+08 -1.072648E+09
       293   6 -2.725075E+09 -9.095395E+09 -9.907266E+08  4.331606E+08  8.413373E+07 -1.594650E+08
       293   7 -2.266278E+09 -8.685513E+09 -4.060882E+08  3.335973E+08  1.052864E+08 -1.074910E+09
       293   8 -2.622830E+09 -8.921936E+09 -8.605377E+08  3.629646E+08  6.517499E+07 -1.835072E+08
       294   1 -1.181997E+09 -4.142727E+09 -6.488358E+08  1.818920E+08  2.728430E+08 -1.917995E+09
       294   2 -1.150174E+09 -4.090237E+09 -6.100630E+08  1.555420E+08  1.888268E+08 -1.925336E+09
       294   3 -1.303810E+09 -4.220913E+09 -7.991756E+08  1.887264E+08  2.352488E+08 -9.598117E+08
       294   4 -1.272702E+09 -4.169945E+09 -7.598192E+08  1.636640E+08  1.648598E+08 -9.804562E+08
       294   5  8.390592E+07 -7.094194E+08  7.609271E+08  4.873782E+07  2.799414E+08 -1.954121E+09
       294   6  9.812542E+07 -6.896620E+08  7.845992E+08  4.167735E+07  1.959201E+08 -1.961385E+09
       294   7  1.311224E+07 -7.685232E+08  6.316181E+08  5.056908E+07  2.424092E+08 -9.959296E+08
       294   8  2.767003E+07 -7.486437E+08  6.566827E+08  4.385364E+07  1.720155E+08 -1.016501E+09
       295   1 -8.390592E+07  7.094194E+08 -7.609271E+08 -4.873782E+07  2.799414E+08 -1.954121E+09
       295   2 -9.812542E+07  6.896620E+08 -7.845992E+08 -4.167735E+07  1.959201E+08 -1.961385E+09
       295   3 -1.311224E+07  7.685232E+08 -6.316181E+08 -5.056908E+07  2.424092E+08 -9.959296E+08
       295   4 -2.767003E+07  7.486437E+08 -6.566827E+08 -4.385364E+07  1.720155E+08 -1.016501E+09
       295   5  1.181997E+09  4.142727E+09  6.488358E+08 -1.818920E+08  2.728430E+08 -1.917995E+09
       295   6  1.150174E+09  4.090237E+09  6.100630E+08 -1.555420E+08  1.888268E+08 -1.925336E+09
       295   7  1.303810E+09  4.220913E+09  7.991756E+08 -1.887264E+08  2.352488E+08 -9.598117E+08
       295   8  1.272702E+09  4.169945E+09  7.598192E+08 -1.636640E+08  1.648598E+08 -9.804562E+08
       296   1  1.031690E+09  5.519773E+09 -8.894802E+08 -2.780029E+08  1.654757E+08 -1.193374E+09
       296   2  9.739298E+08  5.422934E+09 -9.603899E+08 -2.337617E+08  1.213248E+08 -1.187288E+09
       296   3  1.320726E+09  5.735313E+09 -4.386027E+08 -2.912415E+08  1.074242E+08 -2.792690E+08
       296   4  1.252294E+09  5.629364E+09 -5.383952E+08 -2.491695E+08  8.796144E+07 -2.953588E+08
       296   5  2.359880E+09  8.853364E+09  5.090542E+08 -4.074285E+08  1.488787E+08 -1.072648E+09
       296   6  2.266278E+09  8.685513E+09  4.060882E+08 -3.335973E+08  1.052864E+08 -1.074910E+09
       296   7  2.725075E+09  9.095395E+09  9.907266E+08 -4.331606E+08  8.413373E+07 -1.594650E+08
       296   8  2.622830E+09  8.921936E+09  8.605377E+08 -3.629646E+08  6.517499E+07 -1.835072E+08
       297   1 -1.061618E+09 -5.459425E+09  9.317446E+08  3.472499E+07  3.123537E+06 -1.190341E+09
       297   2 -1.412799E+09 -5.698309E+09  4.867132E+08  3.257528E+07 -1.024406E+07 -3.064251E+08
       297   3 -1.062717E+09 -5.461028E+09  9.299230E+08 -3.523370E+07 -1.082828E+07 -1.189874E+09
       297   4 -1.413635E+09 -5.699630E+09  4.854513E+08 -3.400939E+07  5.306643E+06 -3.057002E+08
       297   5 -2.434048E+09 -8.745618E+09 -4.658421E+08  5.238029E+07  3.517057E+06 -1.080192E+09
       297   6 -2.875927E+09 -9.023406E+09 -9.497543E+08  4.899626E+07 -1.000227E+07 -1.962812E+08
       297   7 -2.435837E+09 -8.748749E+09 -4.683293E+08 -4.985523E+07 -1.043483E+07 -1.079913E+09
       297   8 -2.877417E+09 -9.026180E+09 -9.516480E+08 -4.830856E+07  5.548368E+06 -1.957361E+08
       298   1 -1.197414E+09 -4.113398E+09 -6.264726E+08  2.229009E+07  2.684313E+07 -1.933472E+09
       298   2 -1.197972E+09 -4.114113E+09 -6.274630E+08 -2.356707E+07 -4.331487E+07 -1.932162E+09
       298   3 -1.377314E+09 -4.219685E+09 -8.008369E+08  2.095099E+07  1.582243E+07 -9.936066E+08
       298   4 -1.377671E+09 -4.220193E+09 -8.013830E+08 -2.269454E+07 -2.647083E+07 -9.923435E+08
       298   5  8.745718E+07 -6.938786E+08  7.848446E+08  5.972612E+06  2.661793E+07 -1.969851E+09
       298   6  8.705055E+07 -6.943271E+08  7.839793E+08 -6.314778E+06 -4.354001E+07 -1.968394E+09
       298   7  1.872635E+06 -7.597383E+08  6.509031E+08  5.613800E+06  1.571501E+07 -1.029981E+09
       298   8  1.656054E+06 -7.599955E+08  6.504744E+08 -6.080985E+06 -2.657820E+07 -1.028579E+09
       299   1 -8.745718E+07  6.938786E+08 -7.848446E+08 -5.972612E+06  2.661793E+07 -1.969851E+09
       299   2 -8.705055E+07  6.943271E+08 -7.839793E+08  6.314778E+06 -4.354001E+07 -1.968394E+09
       299   3 -1.872635E+06  7.597383E+08 -6.509031E+08 -5.613800E+06  1.571501E+07 -1.029981E+09
       299   4 -1.656054E+06  7.599955E+08 -6.504744E+08  6.080985E+06 -2.657820E+07 -1.028579E+09
       299   5  1.197414E+09  4.113398E+09  6.264726E+08 -2.229009E+07  2.684313E+07 -1.933472E+09
       299   6  1.197972E+09  4.114113E+09  6.274630E+08  2.356707E+07 -4.331487E+07 -1.932162E+09
       299   7  1.377314E+09  4.219685E+09  8.008369E+08 -2.095099E+07  1.582243E+07 -9.936066E+08
       299   8  1.377671E+09  4.220193E+09  8.013830E+08  2.269454E+07 -2.647083E+07 -9.923435E+08
       300   1  1.061618E+09  5.459425E+09 -9.317446E+08 -3.472499E+07  3.123537E+06 -1.190341E+09
       300   2  1.062717E+09  5.461028E+09 -9.299230E+08  3.523370E+07 -1.082828E+07 -1.189874E+09
       300   3  1.412799E+09  5.698309E+09 -4.867132E+08 -3.257528E+07 -1.024406E+07 -3.064251E+08
       300   4  1.413635E+09  5.699630E+09 -4.854513E+08  3.400939E+07  5.306643E+06 -3.057002E+08
       300   5  2.434048E+09  8.745618E+09  4.658421E+08 -5.238029E+07  3.517058E+06 -1.080192E+09
       300   6  2.435837E+09  8.748749E+09  4.683293E+08  4.985523E+07 -1.043483E+07 -1.079913E+09
       300   7  2.875927E+09  9.023406E+09  9.497543E+08 -4.899626E+07 -1.000227E+07 -1.962812E+08
       300   8  2.877417E+09  9.026180E+09  9.516480E+08  4.830856E+07  5.548368E+06 -1.957361E+08
       301   1 -9.616056E+08 -5.423145E+09  9.611375E+08 -2.364608E+08 -1.280414E+08 -1.186656E+09
       301   2 -1.245995E+09 -5.632166E+09  5.379988E+08 -2.517137E+08 -9.151852E+07 -2.942816E+08
       301   3 -1.021182E+09 -5.520607E+09  8.863946E+08 -2.829548E+08 -1.749148E+08 -1.190744E+09
       301   4 -1.314978E+09 -5.737524E+09  4.371793E+08 -2.958956E+08 -1.128390E+08 -2.761903E+08
       301   5 -2.246034E+09 -8.685983E+09 -4.030425E+08 -3.345510E+08 -1.108599E+08 -1.074824E+09
       301   6 -2.612171E+09 -8.926851E+09 -8.602594E+08 -3.640886E+08 -6.832494E+07 -1.828700E+08
       301   7 -2.342134E+09 -8.855390E+09 -5.103259E+08 -4.118162E+08 -1.572310E+08 -1.071486E+09
       301   8 -2.715563E+09 -9.100541E+09 -9.919018E+08 -4.374939E+08 -8.919298E+07 -1.577100E+08
       302   1 -1.142255E+09 -4.089842E+09 -6.090042E+08 -1.581746E+08 -2.041705E+08 -1.922758E+09
       302   2 -1.174502E+09 -4.141743E+09 -6.487679E+08 -1.859603E+08 -2.902150E+08 -1.911911E+09
       302   3 -1.268702E+09 -4.171253E+09 -7.596447E+08 -1.660805E+08 -1.738514E+08 -9.781455E+08
       302   4 -1.299813E+09 -4.221260E+09 -7.990875E+08 -1.924897E+08 -2.454735E+08 -9.544166E+08
       302   5  9.964117E+07 -6.901625E+08  7.834687E+08 -4.238276E+07 -2.116421E+08 -1.958507E+09
       302   6  8.486853E+07 -7.102013E+08  7.585060E+08 -4.982792E+07 -2.976715E+08 -1.947437E+09
       302   7  2.847459E+07 -7.492617E+08  6.561055E+08 -4.450113E+07 -1.811420E+08 -1.013908E+09
       302   8  1.375792E+07 -7.690414E+08  6.306493E+08 -5.157745E+07 -2.527504E+08 -9.899660E+08
       303   1 -9.964117E+07  6.901625E+08 -7.834687E+08  4.238276E+07 -2.116421E+08 -1.958507E+09
       303   2 -8.486853E+07  7.102013E+08 -7.585060E+08  4.982792E+07 -2.976715E+08 -1.947437E+09
       303   3 -2.847459E+07  7.492617E+08 -6.561055E+08  4.450113E+07 -1.811420E+08 -1.013908E+09
       303   4 -1.375792E+07  7.690414E+08 -6.306493E+08  5.157745E+07 -2.527504E+08 -9.899660E+08
       303   5  1.142255E+09  4.089842E+09  6.090042E+08  1.581746E+08 -2.041705E+08 -1.922758E+09
       303   6  1.174502E+09  4.141743E+09  6.487679E+08  1.859603E+08 -2.902150E+08 -1.911911E+09
       303   7  1.268702E+09  4.171253E+09  7.596447E+08  1.660805E+08 -1.738514E+08 -9.781455E+08
       303   8  1.299813E+09  4.221260E+09  7.990875E+08  1.924896E+08 -2.454735E+08 -9.544166E+08
       304   1  9.616056E+08  5.423145E+09 -9.611375E+08  2.364608E+08 -1.280414E+08 -1.186656E+09
       304   2  1.021182E+09  5.520607E+09 -8.863946E+08  2.829548E+08 -1.749148E+08 -1.190744E+09
       304   3  1.245995E+09  5.632166E+09 -5.379988E+08  2.517137E+08 -9.151852E+07 -2.942816E+08
       304   4  1.314978E+09  5.737524E+09 -4.371793E+08  2.958956E+08 -1.128390E+08 -2.761903E+08
       304   5  2.246034E+09  8.685983E+09  4.030425E+08  3.345510E+08 -1.108599E+08 -1.074824E+09
       304   6  2.342134E+09  8.855390E+09  5.103259E+08  4.118162E+08 -1.572310E+08 -1.071486E+09
       304   7  2.612171E+09  8.926851E+09  8.602594E+08  3.640886E+08 -6.832494E+07 -1.828700E+08
       304   8  2.715563E+09  9.100541E+09  9.919018E+08  4.374939E+08 -8.919298E+07 -1.577100E+08
       305   1 -6.750232E+08 -5.550207E+09  9.402901E+08 -4.212583E+08 -1.773205E+08 -1.215037E+09
       305   2 -7.446137E+08 -5.605097E+09  6.084815E+08 -5.685357E+08 -9.959905E+07 -2.597450E+08
       305   3 -9.763559E+08 -6.207872E+09  5.680118E+08 -4.233155E+08 -3.175846E+08 -1.249922E+09
       305   4 -1.020163E+09 -6.219959E+09  2.818640E+08 -5.692644E+08 -2.469298E+08 -2.017957E+08
       305   5 -1.772112E+09 -8.893049E+09 -3.916892E+08 -6.057823E+08 -1.322420E+08 -1.102039E+09
       305   6 -1.821486E+09 -8.902145E+09 -7.036947E+08 -8.274226E+08 -6.498563E+07 -1.449171E+08
       305   7 -2.208844E+09 -9.866871E+09 -8.994342E+08 -6.198377E+08 -2.742308E+08 -1.149644E+09
       305   8 -2.226089E+09 -9.818337E+09 -1.159427E+09 -8.389515E+08 -2.138708E+08 -9.909161E+07
       306   1 -9.523230E+08 -4.148967E+09 -5.927605E+08 -2.789684E+08 -3.219065E+08 -1.912941E+09
       306   2 -1.117395E+09 -4.542888E+09 -7.691055E+08 -2.771273E+08 -4.747744E+08 -1.903558E+09
       306   3 -9.339580E+08 -4.126390E+09 -6.756335E+08 -3.736557E+08 -2.661323E+08 -9.208120E+08
       306   4 -1.101506E+09 -4.511814E+09 -8.667520E+08 -3.711127E+08 -4.387994E+08 -8.242511E+08
       306   5  1.408202E+08 -7.157179E+08  7.651571E+08 -7.474937E+07 -3.300519E+08 -1.950578E+09
       306   6  9.293730E+07 -8.249209E+08  7.093844E+08 -7.425603E+07 -4.837443E+08 -1.947276E+09
       306   7  1.055534E+08 -7.498563E+08  6.491801E+08 -1.001208E+08 -2.792800E+08 -9.575752E+08
       306   8  5.000476E+07 -8.637845E+08  5.731101E+08 -9.943934E+07 -4.526902E+08 -8.668095E+08
       307   1 -1.408202E+08  7.157179E+08 -7.651571E+08  7.474937E+07 -3.300519E+08 -1.950578E+09
       307   2 -9.293730E+07  8.249208E+08 -7.093844E+08  7.425603E+07 -4.837443E+08 -1.947276E+09
       307   3 -1.055534E+08  7.498563E+08 -6.491801E+08  1.001208E+08 -2.792800E+08 -9.575752E+08
       307   4 -5.000476E+07  8.637845E+08 -5.731101E+08  9.943934E+07 -4.526902E+08 -8.668095E+08
       307   5  9.523230E+08  4.148967E+09  5.927605E+08  2.789684E+08 -3.219065E+08 -1.912941E+09
       307   6  1.117395E+09  4.542888E+09  7.691055E+08  2.771273E+08 -4.747744E+08 -1.903558E+09
       307   7  9.339580E+08  4.126390E+09  6.756335E+08  3.736557E+08 -2.661323E+08 -9.208120E+08
       307   8  1.101506E+09  4.511814E+09  8.667520E+08  3.711127E+08 -4.387994E+08 -8.242511E+08
       308   1  6.750232E+08  5.550207E+09 -9.402901E+08  4.212583E+08 -1.773205E+08 -1.215037E+09
       308   2  9.763559E+08  6.207872E+09 -5.680118E+08  4.233155E+08 -3.175846E+08 -1.249922E+09
       308   3  7.446137E+08  5.605097E+09 -6.084815E+08  5.685357E+08 -9.959905E+07 -2.597450E+08
       308   4  1.020163E+09  6.219959E+09 -2.818640E+08  5.692644E+08 -2.469298E+08 -2.017957E+08
       308   5  1.772112E+09  8.893049E+09  3.916892E+08  6.057823E+08 -1.322420E+08 -1.102039E+09
       308   6  2.208844E+09  9.866871E+09  8.994342E+08  6.198377E+08 -2.742308E+08 -1.149644E+09
       308   7  1.821486E+09  8.902145E+09  7.036947E+08  8.274226E+08 -6.498563E+07 -1.449171E+08
       308   8  2.226089E+09  9.818337E+09  1.159427E+09  8.389515E+08 -2.138708E+08 -9.909162E+07
       309   1  1.368567E+08 -5.306636E+09  1.187908E+09 -1.284896E+09 -1.570976E+08 -1.246268E+09
       309   2 -5.452003E+08 -5.753061E+09  4.880286E+08 -1.204745E+09 -2.499004E+07 -1.674041E+08
       309   3  1.771607E+08 -5.099248E+09  1.389310E+09 -1.428716E+09 -4.480735E+08 -9.782173E+08
       309   4 -6.569612E+08 -5.708562E+09  3.186336E+08 -1.342699E+09 -2.742526E+08  1.262651E+08
       309   5 -5.581679E+08 -8.618700E+09 -1.421856E+07 -1.835022E+09 -1.714087E+08 -1.094142E+09
       309   6 -1.407571E+09 -9.133825E+09 -7.849119E+08 -1.745109E+09  5.029793E+07 -4.040006E+07
       309   7 -5.657084E+08 -8.444607E+09  1.628416E+08 -2.037078E+09 -4.405700E+08 -7.196891E+08
       309   8 -1.562860E+09 -9.120199E+09 -9.766270E+08 -1.938645E+09 -1.792804E+08  3.549144E+08
       310   1 -4.056966E+08 -3.943370E+09 -3.827287E+08 -8.545574E+08 -2.958284E+08 -1.860683E+09
       310   2 -4.239531E+08 -3.834052E+09 -3.658556E+08 -9.511736E+08 -5.850842E+08 -1.513083E+09
       310   3 -8.064003E+08 -4.186713E+09 -7.068098E+08 -7.941633E+08 -2.344583E+08 -7.525429E+08
       310   4 -8.406993E+08 -4.101427E+09 -7.376470E+08 -8.869180E+08 -4.611830E+08 -4.064459E+08
       310   5  2.806849E+08 -6.672318E+08  8.060272E+08 -2.289780E+08 -3.097647E+08 -1.910418E+09
       310   6  2.713816E+08 -6.423515E+08  8.002548E+08 -2.548662E+08 -6.016458E+08 -1.575623E+09
       310   7  1.180468E+08 -7.877054E+08  5.902268E+08 -2.127954E+08 -2.591773E+08 -7.992553E+08
       310   8  8.937254E+07 -7.843369E+08  5.365016E+08 -2.376489E+08 -4.882707E+08 -4.653907E+08
       311   1 -2.806849E+08  6.672318E+08 -8.060272E+08  2.289780E+08 -3.097647E+08 -1.910418E+09
       311   2 -2.713816E+08  6.423515E+08 -8.002548E+08  2.548662E+08 -6.016458E+08 -1.575623E+09
       311   3 -1.180468E+08  7.877054E+08 -5.902268E+08  2.127954E+08 -2.591773E+08 -7.992553E+08
       311   4 -8.937254E+07  7.843368E+08 -5.365016E+08  2.376489E+08 -4.882707E+08 -4.653907E+08
       311   5  4.056966E+08  3.943370E+09  3.827287E+08  8.545574E+08 -2.958284E+08 -1.860683E+09
       311   6  4.239531E+08  3.834052E+09  3.658556E+08  9.511736E+08 -5.850842E+08 -1.513083E+09
       311   7  8.064003E+08  4.186713E+09  7.068098E+08  7.941633E+08 -2.344583E+08 -7.525429E+08
       311   8  8.406993E+08  4.101427E+09  7.376470E+08  8.869179E+08 -4.611830E+08 -4.064459E+08
       312   1 -1.368567E+08  5.306636E+09 -1.187908E+09  1.284896E+09 -1.570976E+08 -1.246268E+09
       312   2 -1.771607E+08  5.099248E+09 -1.389310E+09  1.428716E+09 -4.480735E+08 -9.782173E+08
       312   3  5.452003E+08  5.753061E+09 -4.880286E+08  1.204745E+09 -2.499004E+07 -1.674041E+08
       312   4  6.569612E+08  5.708562E+09 -3.186336E+08  1.342698E+09 -2.742526E+08  1.262651E+08
       312   5  5.581679E+08  8.618700E+09  1.421856E+07  1.835022E+09 -1.714087E+08 -1.094142E+09
       312   6  5.657084E+08  8.444607E+09 -1.628416E+08  2.037078E+09 -4.405700E+08 -7.196891E+08
       312   7  1.407571E+09  9.133825E+09  7.849119E+08  1.745109E+09  5.029793E+07 -4.040006E+07
       312   8  1.562860E+09  9.120199E+09  9.766270E+08  1.938645E+09 -1.792804E+08  3.549144E+08
       313   1 -2.478512E+08 -4.070650E+09  8.462669E+08  1.306025E+09  2.450548E+08 -1.079712E+09
       313   2 -1.692522E+08 -3.628391E+09  7.590968E+08  1.331756E+09  4.989694E+08 -9.541275E+08
       313   3 -6.198395E+08 -4.428579E+09  3.495826E+08  1.161403E+09  1.212790E+08 -2.084440E+08
       313   4 -5.336534E+08 -3.994250E+09  2.874741E+08  1.187633E+09  3.393227E+08 -8.034917E+07
       313   5 -9.328877E+08 -6.658743E+09 -1.356719E+08  1.922847E+09  1.493760E+08 -9.929979E+08
       313   6 -8.482110E+08 -6.150045E+09 -2.010871E+08  1.986465E+09  4.061063E+08 -8.825187E+08
       313   7 -1.425775E+09 -7.082452E+09 -6.883599E+08  1.751785E+09  3.725563E+07 -1.184251E+08
       313   8 -1.332442E+09 -6.583770E+09 -7.290182E+08  1.814592E+09  2.578682E+08 -4.833479E+06
       314   1 -5.648415E+08 -3.030423E+09 -3.723900E+08  8.519680E+08  4.854934E+08 -1.641794E+09
       314   2 -7.524802E+08 -3.222884E+09 -5.826551E+08  7.455406E+08  3.900723E+08 -7.863586E+08
       314   3 -4.321324E+08 -2.628329E+09 -2.783118E+08  8.613250E+08  7.062038E+08 -1.450349E+09
       314   4 -6.315388E+08 -2.843886E+09 -5.094235E+08  7.556696E+08  5.915702E+08 -6.616896E+08
       314   5  1.469011E+08 -5.137495E+08  5.961348E+08  2.282842E+08  5.130669E+08 -1.673426E+09
       314   6  5.597977E+07 -6.059630E+08  4.449592E+08  1.997670E+08  4.195203E+08 -8.174591E+08
       314   7  1.544329E+08 -4.340362E+08  5.559456E+08  2.307913E+08  7.342302E+08 -1.484411E+09
       314   8  5.597143E+07 -5.368252E+08  3.889478E+08  2.024811E+08  6.214314E+08 -6.951226E+08
       315   1 -1.469011E+08  5.137495E+08 -5.961348E+08 -2.282841E+08  5.130669E+08 -1.673426E+09
       315   2 -5.597977E+07  6.059630E+08 -4.449592E+08 -1.997670E+08  4.195203E+08 -8.174591E+08
       315   3 -1.544329E+08  4.340362E+08 -5.559456E+08 -2.307913E+08  7.342302E+08 -1.484411E+09
       315   4 -5.597143E+07  5.368252E+08 -3.889478E+08 -2.024811E+08  6.214314E+08 -6.951226E+08
       315   5  5.648415E+08  3.030423E+09  3.723900E+08 -8.519680E+08  4.854934E+08 -1.641794E+09
       315   6  7.524802E+08  3.222884E+09  5.826551E+08 -7.455406E+08  3.900723E+08 -7.863586E+08
       315   7  4.321324E+08  2.628329E+09  2.783118E+08 -8.613250E+08  7.062038E+08 -1.450349E+09
       315   8  6.315388E+08  2.843886E+09  5.094235E+08 -7.556696E+08  5.915702E+08 -6.616896E+08
       316   1  2.478512E+08  4.070650E+09 -8.462669E+08 -1.306025E+09  2.450548E+08 -1.079712E+09
       316   2  6.198395E+08  4.428579E+09 -3.495826E+08 -1.161403E+09  1.212790E+08 -2.084440E+08
       316   3  1.692522E+08  3.628391E+09 -7.590968E+08 -1.331756E+09  4.989694E+08 -9.541275E+08
       316   4  5.336534E+08  3.994250E+09 -2.874742E+08 -1.187633E+09  3.393227E+08 -8.034917E+07
       316   5  9.328877E+08  6.658743E+09  1.356719E+08 -1.922847E+09  1.493760E+08 -9.929979E+08
       316   6  1.425775E+09  7.082452E+09  6.883599E+08 -1.751785E+09  3.725563E+07 -1.184251E+08
       316   7  8.482110E+08  6.150045E+09  2.010871E+08 -1.986465E+09  4.061063E+08 -8.825187E+08
       316   8  1.332442E+09  6.583770E+09  7.290182E+08 -1.814592E+09  2.578682E+08 -4.833480E+06
       317   1 -5.731417E+08 -4.594778E+09  7.048473E+08  8.481672E+08  3.796633E+08 -1.047735E+09
       317   2 -1.003559E+09 -4.843017E+09  2.291200E+08  8.662443E+08  2.837563E+08 -1.997061E+08
       317   3 -4.113820E+08 -4.358696E+09  8.906030E+08  7.318748E+08  2.344419E+08 -1.036303E+09
       317   4 -8.259367E+08 -4.592928E+09  4.642423E+08  7.551530E+08  1.884060E+08 -2.466903E+08
       317   5 -1.536219E+09 -7.401806E+09 -4.261843E+08  1.247422E+09  3.455511E+08 -9.442953E+08
       317   6 -2.099457E+09 -7.684205E+09 -9.520058E+08  1.288717E+09  2.390899E+08 -9.880272E+07
       317   7 -1.283812E+09 -6.999746E+09 -1.634408E+08  1.070147E+09  2.020723E+08 -9.470271E+08
       317   8 -1.836141E+09 -7.275624E+09 -6.436280E+08  1.119475E+09  1.453264E+08 -1.593526E+08
       318   1 -7.712750E+08 -3.410737E+09 -5.112313E+08  5.536735E+08  5.927513E+08 -1.648698E+09
       318   2 -6.797598E+08 -3.282352E+09 -4.100380E+08  4.795606E+08  4.134602E+08 -1.658138E+09
       318   3 -9.999972E+08 -3.524261E+09 -7.030431E+08  5.612279E+08  5.253914E+08 -7.809575E+08
       318   4 -9.077329E+08 -3.395859E+09 -5.926182E+08  4.903996E+08  3.908049E+08 -8.268577E+08
       318   5  1.072911E+08 -5.999506E+08  5.955745E+08  1.483564E+08  6.081390E+08 -1.681568E+09
       318   6  1.466886E+08 -5.506738E+08  6.573999E+08  1.284979E+08  4.285164E+08 -1.688313E+09
       318   7  8.358887E+06 -6.680155E+08  4.563373E+08  1.503806E+08  5.427872E+08 -8.133446E+08
       318   8  5.175888E+07 -6.149324E+08  5.295072E+08  1.314022E+08  4.078988E+08 -8.566639E+08
       319   1 -1.072911E+08  5.999506E+08 -5.955745E+08 -1.483564E+08  6.081390E+08 -1.681568E+09
       319   2 -1.466886E+08  5.506738E+08 -6.573999E+08 -1.284979E+08  4.285164E+08 -1.688313E+09
       319   3 -8.358887E+06  6.680154E+08 -4.563373E+08 -1.503806E+08  5.427872E+08 -8.133447E+08
       319   4 -5.175888E+07  6.149324E+08 -5.295072E+08 -1.314022E+08  4.078988E+08 -8.566639E+08
       319   5  7.712750E+08  3.410737E+09  5.112313E+08 -5.536735E+08  5.927513E+08 -1.648698E+09
       319   6  6.797597E+08  3.282352E+09  4.100380E+08 -4.795606E+08  4.134602E+08 -1.658138E+09
       319   7  9.999972E+08  3.524261E+09  7.030431E+08 -5.612279E+08  5.253914E+08 -7.809575E+08
       319   8  9.077329E+08  3.395859E+09  5.926182E+08 -4.903996E+08  3.908049E+08 -8.268577E+08
       320   1  5.731417E+08  4.594778E+09 -7.048473E+08 -8.481672E+08  3.796633E+08 -1.047735E+09
       320   2  4.113820E+08  4.358696E+09 -8.906030E+08 -7.318748E+08  2.344419E+08 -1.036303E+09
       320   3  1.003559E+09  4.843017E+09 -2.291200E+08 -8.662442E+08  2.837563E+08 -1.997061E+08
       320   4  8.259367E+08  4.592928E+09 -4.642424E+08 -7.551530E+08  1.884060E+08 -2.466903E+08
       320   5  1.536219E+09  7.401806E+09  4.261843E+08 -1.247422E+09  3.455511E+08 -9.442953E+08
       320   6  1.283812E+09  6.999746E+09  1.634408E+08 -1.070147E+09  2.020723E+08 -9.470271E+08
       320   7  2.099457E+09  7.684205E+09  9.520058E+08 -1.288717E+09  2.390899E+08 -9.880272E+07
       320   8  1.836141E+09  7.275624E+09  6.436280E+08 -1.119475E+09  1.453264E+08 -1.593526E+08
       321   1 -1.020966E+09 -4.612865E+09  6.761200E+08  3.762261E+08  1.535200E+08 -1.025687E+09
       321   2 -1.355756E+09 -4.813137E+09  2.983518E+08  4.054625E+08  1.041849E+08 -2.752265E+08
       321   3 -8.944999E+08 -4.394614E+09  8.350984E+08  2.892861E+08  1.543346E+08 -9.967822E+08
       321   4 -1.234758E+09 -4.603890E+09  4.521307E+08  3.224732E+08  1.467257E+08 -2.787749E+08
       321   5 -2.232276E+09 -7.370565E+09 -5.145830E+08  5.578253E+08  1.305232E+08 -9.396171E+08
       321   6 -2.675305E+09 -7.609524E+09 -9.364288E+08  6.022643E+08  8.248490E+07 -1.889785E+08
       321   7 -2.056828E+09 -7.055645E+09 -3.119093E+08  4.259425E+08  1.312309E+08 -9.089611E+08
       321   8 -2.507902E+09 -7.308024E+09 -7.410528E+08  4.763748E+08  1.249285E+08 -1.908521E+08
       322   1 -1.072272E+09 -3.458710E+09 -5.620869E+08  2.442970E+08  2.929793E+08 -1.657593E+09
       322   2 -1.002938E+09 -3.330753E+09 -4.872735E+08  1.887035E+08  2.366454E+08 -1.632720E+09
       322   3 -1.250299E+09 -3.550723E+09 -7.195069E+08  2.629664E+08  2.575956E+08 -8.574645E+08
       322   4 -1.183459E+09 -3.427518E+09 -6.456831E+08  2.098990E+08  2.364541E+08 -8.628948E+08
       322   5  4.937586E+07 -5.900682E+08  6.349999E+08  6.545918E+07  2.998272E+08 -1.688034E+09
       322   6  7.455334E+07 -5.491828E+08  6.704448E+08  5.056294E+07  2.434893E+08 -1.663096E+09
       322   7 -3.059624E+07 -6.469930E+08  5.175230E+08  7.046163E+07  2.644919E+08 -8.878995E+08
       322   8 -5.586786E+06 -6.068807E+08  5.538698E+08  5.624228E+07  2.433468E+08 -8.932672E+08
       323   1 -4.937586E+07  5.900682E+08 -6.349998E+08 -6.545918E+07  2.998272E+08 -1.688034E+09
       323   2 -7.455334E+07  5.491828E+08 -6.704448E+08 -5.056294E+07  2.434893E+08 -1.663096E+09
       323   3  3.059624E+07  6.469930E+08 -5.175230E+08 -7.046163E+07  2.644919E+08 -8.878995E+08
       323   4  5.586786E+06  6.068807E+08 -5.538698E+08 -5.624228E+07  2.433468E+08 -8.932672E+08
       323   5  1.072272E+09  3.458710E+09  5.620869E+08 -2.442970E+08  2.929793E+08 -1.657593E+09
       323   6  1.002938E+09  3.330753E+09  4.872735E+08 -1.887035E+08  2.366454E+08 -1.632720E+09
       323   7  1.250299E+09  3.550723E+09  7.195069E+08 -2.629664E+08  2.575956E+08 -8.574645E+08
       323   8  1.183459E+09  3.427518E+09  6.456831E+08 -2.098990E+08  2.364541E+08 -8.628948E+08
       324   1  1.020966E+09  4.612865E+09 -6.761200E+08 -3.762261E+08  1.535200E+08 -1.025687E+09
       324   2  8.944999E+08  4.394614E+09 -8.350984E+08 -2.892861E+08  1.543346E+08 -9.967822E+08
       324   3  1.355756E+09  4.813137E+09 -2.983518E+08 -4.054625E+08  1.041849E+08 -2.752265E+08
       324   4  1.234758E+09  4.603890E+09 -4.521307E+08 -3.224732E+08  1.467257E+08 -2.787749E+08
       324   5  2.232276E+09  7.370565E+09  5.145830E+08 -5.578253E+08  1.305232E+08 -9.396171E+08
       324   6  2.056828E+09  7.055645E+09  3.119093E+08 -4.259425E+08  1.312309E+08 -9.089611E+08
       324   7  2.675305E+09  7.609524E+09  9.364288E+08 -6.022643E+08  8.248490E+07 -1.889785E+08
       324   8  2.507902E+09  7.308024E+09  7.410528E+08 -4.763748E+08  1.249285E+08 -1.908521E+08
       325   1 -1.064554E+09 -4.434221E+09  7.924066E+08  4.903898E+07 -2.385166E+07 -9.965986E+08
       325   2 -1.441701E+09 -4.667822E+09  3.908720E+08  4.664404E+07 -4.646186E+07 -2.931633E+08
       325   3 -1.064794E+09 -4.434292E+09  7.919555E+08 -4.784173E+07  1.983551E+07 -9.956653E+08
       325   4 -1.441753E+09 -4.667719E+09  3.908344E+08 -4.592580E+07  4.459295E+07 -2.922870E+08
       325   5 -2.318439E+09 -7.118755E+09 -3.891192E+08  7.432395E+07 -2.370807E+07 -9.068810E+08
       325   6 -2.821177E+09 -7.406185E+09 -8.444797E+08  7.066567E+07 -4.641903E+07 -2.034492E+08
       325   7 -2.318829E+09 -7.119070E+09 -3.896885E+08 -7.099256E+07  1.997906E+07 -9.060837E+08
       325   8 -2.821367E+09 -7.406313E+09 -8.446281E+08 -6.818475E+07  4.463574E+07 -2.027028E+08
       326   1 -1.116546E+09 -3.361126E+09 -5.247947E+08  3.137668E+07  4.383048E+06 -1.634502E+09
       326   2 -1.116601E+09 -3.361022E+09 -5.249064E+08 -3.104851E+07 -1.234069E+07 -1.633220E+09
       326   3 -1.321529E+09 -3.473614E+09 -6.947836E+08  2.985255E+07 -1.465616E+07 -8.784660E+08
       326   4 -1.321512E+09 -3.473448E+09 -6.947394E+08 -2.979493E+07  1.061249E+07 -8.773274E+08
       326   5  4.650823E+07 -5.549253E+08  6.659818E+08  8.407357E+06  4.332678E+06 -1.665221E+09
       326   6  4.643995E+07 -5.549507E+08  6.658274E+08 -8.319423E+06 -1.239104E+07 -1.663887E+09
       326   7 -3.998552E+07 -6.166350E+08  5.467730E+08  7.998967E+06 -1.466856E+07 -9.091834E+08
       326   8 -3.998550E+07 -6.165950E+08  5.467743E+08 -7.983529E+06  1.060011E+07 -9.079958E+08
       327   1 -4.650823E+07  5.549253E+08 -6.659818E+08 -8.407357E+06  4.332678E+06 -1.665221E+09
       327   2 -4.643995E+07  5.549507E+08 -6.658274E+08  8.319423E+06 -1.239104E+07 -1.663887E+09
       327   3  3.998552E+07  6.166350E+08 -5.467730E+08 -7.998967E+06 -1.466856E+07 -9.091834E+08
       327   4  3.998550E+07  6.165950E+08 -5.467743E+08  7.983528E+06  1.060011E+07 -9.079958E+08
       327   5  1.116546E+09  3.361126E+09  5.247947E+08 -3.137668E+07  4.383048E+06 -1.634502E+09
       327   6  1.116601E+09  3.361022E+09  5.249064E+08  3.104851E+07 -1.234069E+07 -1.633220E+09
       327   7  1.321529E+09  3.473614E+09  6.947836E+08 -2.985255E+07 -1.465616E+07 -8.784660E+08
       327   8  1.321512E+09  3.473448E+09  6.947394E+08  2.979493E+07  1.061249E+07 -8.773274E+08
       328   1  1.064554E+09  4.434221E+09 -7.924066E+08 -4.903898E+07 -2.385166E+07 -9.965986E+08
       328   2  1.064794E+09  4.434292E+09 -7.919555E+08  4.784173E+07  1.983551E+07 -9.956653E+08
       328   3  1.441701E+09  4.667822E+09 -3.908720E+08 -4.664404E+07 -4.646186E+07 -2.931633E+08
       328   4  1.441753E+09  4.667719E+09 -3.908344E+08  4.592580E+07  4.459295E+07 -2.922870E+08
       328   5  2.318439E+09  7.118755E+09  3.891192E+08 -7.432395E+07 -2.370807E+07 -9.068810E+08
       328   6  2.318829E+09  7.119070E+09  3.896885E+08  7.099256E+07  1.997906E+07 -9.060837E+08
       328   7  2.821177E+09  7.406185E+09  8.444798E+08 -7.066567E+07 -4.641903E+07 -2.034492E+08
       328   8  2.821367E+09  7.406313E+09  8.446281E+08  6.818475E+07  4.463574E+07 -2.027028E+08
       329   1 -8.896110E+08 -4.395698E+09  8.355557E+08 -2.884104E+08 -1.569179E+08 -9.962574E+08
       329   2 -1.233131E+09 -4.607045E+09  4.516250E+08 -3.216497E+08 -1.475535E+08 -2.787199E+08
       329   3 -1.015851E+09 -4.612498E+09  6.769045E+08 -3.765231E+08 -1.575307E+08 -1.023776E+09
       329   4 -1.353655E+09 -4.814613E+09  2.986149E+08 -4.057054E+08 -1.059269E+08 -2.738670E+08
       329   5 -2.048314E+09 -7.057157E+09 -3.104930E+08 -4.232406E+08 -1.337003E+08 -9.085380E+08
       329   6 -2.504584E+09 -7.312854E+09 -7.415535E+08 -4.739600E+08 -1.257541E+08 -1.909009E+08
       329   7 -2.223794E+09 -7.370810E+09 -5.129720E+08 -5.569497E+08 -1.344301E+08 -9.379568E+08
       329   8 -2.671712E+09 -7.612784E+09 -9.362533E+08 -6.015117E+08 -8.423366E+07 -1.878640E+08
       330   1 -9.999609E+08 -3.331316E+09 -4.867985E+08 -1.885400E+08 -2.428883E+08 -1.631502E+09
       330   2 -1.069010E+09 -3.458043E+09 -5.612402E+08 -2.448697E+08 -3.001043E+08 -1.654505E+09
       330   3 -1.182644E+09 -3.429503E+09 -6.460355E+08 -2.097089E+08 -2.392528E+08 -8.623928E+08
       330   4 -1.249081E+09 -3.551380E+09 -7.192937E+08 -2.634453E+08 -2.608567E+08 -8.554500E+08
       330   5  7.524583E+07 -5.494389E+08  6.703267E+08 -5.051914E+07 -2.497763E+08 -1.661823E+09
       330   6  5.010978E+07 -5.900298E+08  6.348998E+08 -6.561264E+07 -3.069926E+08 -1.684830E+09
       330   7 -5.369017E+06 -6.074133E+08  5.537739E+08 -5.619133E+07 -2.461439E+08 -8.927135E+08
       330   8 -3.025084E+07 -6.471501E+08  5.176244E+08 -7.058997E+07 -2.677480E+08 -8.857746E+08
       331   1 -7.524583E+07  5.494389E+08 -6.703267E+08  5.051914E+07 -2.497763E+08 -1.661823E+09
       331   2 -5.010978E+07  5.900298E+08 -6.348998E+08  6.561264E+07 -3.069926E+08 -1.684830E+09
       331   3  5.369017E+06  6.074133E+08 -5.537739E+08  5.619133E+07 -2.461439E+08 -8.927135E+08
       331   4  3.025084E+07  6.471501E+08 -5.176244E+08  7.058997E+07 -2.677480E+08 -8.857746E+08
       331   5  9.999608E+08  3.331316E+09  4.867984E+08  1.885400E+08 -2.428883E+08 -1.631502E+09
       331   6  1.069010E+09  3.458043E+09  5.612402E+08  2.448697E+08 -3.001043E+08 -1.654505E+09
       331   7  1.182644E+09  3.429503E+09  6.460355E+08  2.097089E+08 -2.392528E+08 -8.623928E+08
       331   8  1.249081E+09  3.551380E+09  7.192937E+08  2.634453E+08 -2.608567E+08 -8.554500E+08
       332   1  8.896110E+08  4.395698E+09 -8.355557E+08  2.884104E+08 -1.569179E+08 -9.962574E+08
       332   2  1.015851E+09  4.612498E+09 -6.769045E+08  3.765230E+08 -1.575307E+08 -1.023776E+09
       332   3  1.233131E+09  4.607045E+09 -4.516250E+08  3.216497E+08 -1.475535E+08 -2.787199E+08
       332   4  1.353655E+09  4.814613E+09 -2.986149E+08  4.057054E+08 -1.059269E+08 -2.738670E+08
       332   5  2.048314E+09  7.057157E+09  3.104930E+08  4.232406E+08 -1.337003E+08 -9.085380E+08
       332   6  2.223794E+09  7.370810E+09  5.129720E+08  5.569497E+08 -1.344301E+08 -9.379568E+08
       332   7  2.504584E+09  7.312854E+09  7.415535E+08  4.739600E+08 -1.257541E+08 -1.909009E+08
       332   8  2.671712E+09  7.612784E+09  9.362533E+08  6.015117E+08 -8.423366E+07 -1.878640E+08
       333   1 -4.065754E+08 -4.363042E+09  8.902841E+08 -7.310283E+08 -2.341560E+08 -1.035237E+09
       333   2 -8.237058E+08 -4.598597E+09  4.637736E+08 -7.548402E+08 -1.875898E+08 -2.460051E+08
       333   3 -5.684102E+08 -4.599309E+09  7.057268E+08 -8.483475E+08 -3.813511E+08 -1.047520E+09
       333   4 -1.001191E+09 -4.848612E+09  2.299235E+08 -8.667721E+08 -2.842832E+08 -1.995809E+08
       333   5 -1.274477E+09 -7.005894E+09 -1.629421E+08 -1.068581E+09 -2.021626E+08 -9.461317E+08
       333   6 -1.832156E+09 -7.284845E+09 -6.446357E+08 -1.118586E+09 -1.448713E+08 -1.587774E+08
       333   7 -1.527364E+09 -7.408275E+09 -4.246490E+08 -1.247780E+09 -3.476109E+08 -9.442437E+08
       333   8 -2.095573E+09 -7.693270E+09 -9.517884E+08 -1.289451E+09 -2.399780E+08 -9.879638E+07
       334   1 -6.771502E+08 -3.285133E+09 -4.102317E+08 -4.791007E+08 -4.154941E+08 -1.656116E+09
       334   2 -7.688424E+08 -3.413860E+09 -5.109805E+08 -5.537644E+08 -5.958235E+08 -1.648396E+09
       334   3 -9.065923E+08 -3.399417E+09 -5.930943E+08 -4.903194E+08 -3.909918E+08 -8.258092E+08
       334   4 -9.989352E+08 -3.528039E+09 -7.030969E+08 -5.615848E+08 -5.264609E+08 -7.811958E+08
       334   5  1.473277E+08 -5.514791E+08  6.572077E+08 -1.283746E+08 -4.303775E+08 -1.686246E+09
       334   6  1.081363E+08 -6.005940E+08  5.960929E+08 -1.483807E+08 -6.110421E+08 -1.681246E+09
       334   7  5.216978E+07 -6.157806E+08  5.296253E+08 -1.313807E+08 -4.079334E+08 -8.555791E+08
       334   8  8.964867E+06 -6.687064E+08  4.570728E+08 -1.504762E+08 -5.437070E+08 -8.135673E+08
       335   1 -1.473277E+08  5.514791E+08 -6.572077E+08  1.283746E+08 -4.303775E+08 -1.686246E+09
       335   2 -1.081363E+08  6.005940E+08 -5.960929E+08  1.483807E+08 -6.110421E+08 -1.681246E+09
       335   3 -5.216978E+07  6.157806E+08 -5.296253E+08  1.313807E+08 -4.079334E+08 -8.555791E+08
       335   4 -8.964867E+06  6.687064E+08 -4.570728E+08  1.504762E+08 -5.437070E+08 -8.135673E+08
       335   5  6.771501E+08  3.285133E+09  4.102317E+08  4.791007E+08 -4.154941E+08 -1.656116E+09
       335   6  7.688424E+08  3.413860E+09  5.109805E+08  5.537644E+08 -5.958235E+08 -1.648396E+09
       335   7  9.065923E+08  3.399417E+09  5.930943E+08  4.903194E+08 -3.909918E+08 -8.258092E+08
       335   8  9.989352E+08  3.528039E+09  7.030969E+08  5.615848E+08 -5.264609E+08 -7.811958E+08
       336   1  4.065754E+08  4.363042E+09 -8.902841E+08  7.310283E+08 -2.341560E+08 -1.035237E+09
       336   2  5.684102E+08  4.599309E+09 -7.057268E+08  8.483475E+08 -3.813511E+08 -1.047520E+09
       336   3  8.237058E+08  4.598597E+09 -4.637736E+08  7.548402E+08 -1.875898E+08 -2.460052E+08
       336   4  1.001191E+09  4.848612E+09 -2.299235E+08  8.667721E+08 -2.842832E+08 -1.995809E+08
       336   5  1.274477E+09  7.005894E+09  1.629421E+08  1.068581E+09 -2.021626E+08 -9.461317E+08
       336   6  1.527364E+09  7.408275E+09  4.246490E+08  1.247780E+09 -3.476109E+08 -9.442437E+08
       336   7  1.832156E+09  7.284845E+09  6.446357E+08  1.118586E+09 -1.448713E+08 -1.587774E+08
       336   8  2.095573E+09  7.693270E+09  9.517884E+08  1.289451E+09 -2.399780E+08 -9.879638E+07
       337   1 -2.447939E+08 -4.081564E+09  8.459714E+08 -1.307134E+09 -2.439354E+08 -1.080470E+09
       337   2 -6.190505E+08 -4.438216E+09  3.497490E+08 -1.163398E+09 -1.206064E+08 -2.084849E+08
       337   3 -1.681174E+08 -3.643922E+09  7.589561E+08 -1.334537E+09 -4.989074E+08 -9.568505E+08
       337   4 -5.351878E+08 -4.009435E+09  2.869354E+08 -1.191216E+09 -3.395058E+08 -8.176279E+07
       337   5 -9.282851E+08 -6.673264E+09 -1.365861E+08 -1.925291E+09 -1.487527E+08 -9.936436E+08
       337   6 -1.425011E+09 -7.096473E+09 -6.895165E+08 -1.754776E+09 -3.708821E+07 -1.183870E+08
       337   7 -8.452358E+08 -6.167963E+09 -2.013918E+08 -1.991027E+09 -4.065337E+08 -8.851228E+08
       337   8 -1.333678E+09 -6.602255E+09 -7.304575E+08 -1.819545E+09 -2.585421E+08 -6.137142E+06
       338   1 -5.628508E+08 -3.037963E+09 -3.723849E+08 -8.524574E+08 -4.853115E+08 -1.643982E+09
       338   2 -4.311420E+08 -2.639262E+09 -2.769132E+08 -8.630039E+08 -7.075582E+08 -1.457292E+09
       338   3 -7.523909E+08 -3.229760E+09 -5.834032E+08 -7.468272E+08 -3.897789E+08 -7.876441E+08
       338   4 -6.335944E+08 -2.855669E+09 -5.113600E+08 -7.580992E+08 -5.924233E+08 -6.657564E+08
       338   5  1.481398E+08 -5.150646E+08  5.977819E+08 -2.284153E+08 -5.121262E+08 -1.676065E+09
       338   6  1.565487E+08 -4.351152E+08  5.606381E+08 -2.312412E+08 -7.349504E+08 -1.492479E+09
       338   7  5.654755E+07 -6.072614E+08  4.460278E+08 -2.001117E+08 -4.189918E+08 -8.190544E+08
       338   8  5.635608E+07 -5.390469E+08  3.906116E+08 -2.031321E+08 -6.221613E+08 -7.001421E+08
       339   1 -1.481398E+08  5.150646E+08 -5.977819E+08  2.284153E+08 -5.121262E+08 -1.676065E+09
       339   2 -1.565487E+08  4.351152E+08 -5.606381E+08  2.312412E+08 -7.349504E+08 -1.492479E+09
       339   3 -5.654755E+07  6.072614E+08 -4.460278E+08  2.001117E+08 -4.189918E+08 -8.190544E+08
       339   4 -5.635608E+07  5.390469E+08 -3.906116E+08  2.031321E+08 -6.221613E+08 -7.001421E+08
       339   5  5.628508E+08  3.037963E+09  3.723849E+08  8.524574E+08 -4.853115E+08 -1.643982E+09
       339   6  4.311420E+08  2.639262E+09  2.769132E+08  8.630039E+08 -7.075582E+08 -1.457292E+09
       339   7  7.523909E+08  3.229760E+09  5.834032E+08  7.468272E+08 -3.897789E+08 -7.876441E+08
       339   8  6.335944E+08  2.855669E+09  5.113600E+08  7.580992E+08 -5.924233E+08 -6.657564E+08
       340   1  2.447939E+08  4.081564E+09 -8.459714E+08  1.307134E+09 -2.439354E+08 -1.080470E+09
       340   2  1.681174E+08  3.643922E+09 -7.589561E+08  1.334537E+09 -4.989074E+08 -9.568505E+08
       340   3  6.190505E+08  4.438216E+09 -3.497490E+08  1.163398E+09 -1.206064E+08 -2.084849E+08
       340   4  5.351878E+08  4.009435E+09 -2.869354E+08  1.191216E+09 -3.395058E+08 -8.176279E+07
       340   5  9.282851E+08  6.673264E+09  1.365861E+08  1.925291E+09 -1.487527E+08 -9.936436E+08
       340   6  8.452358E+08  6.167963E+09  2.013918E+08  1.991027E+09 -4.065337E+08 -8.851228E+08
       340   7  1.425011E+09  7.096473E+09  6.895165E+08  1.754776E+09 -3.708821E+07 -1.183870E+08
       340   8  1.333678E+09  6.602255E+09  7.304575E+08  1.819545E+09 -2.585421E+08 -6.137143E+06
       341   1 -2.997615E+08 -3.106522E+09  6.697754E+08  1.161166E+09  2.801287E+08 -9.569584E+08
       341   2 -2.244619E+08 -2.689071E+09  6.096391E+08  1.205842E+09  5.005888E+08 -1.018163E+09
       341   3 -6.392469E+08 -3.407690E+09  2.841535E+08  1.033107E+09  2.019462E+08 -2.600155E+08
       341   4 -5.675977E+08 -3.007779E+09  2.206382E+08  1.077332E+09  3.738012E+08 -3.164259E+08
       341   5 -9.266512E+08 -5.086162E+09 -1.121834E+08  1.774611E+09  2.073173E+08 -8.982980E+08
       341   6 -8.462646E+08 -4.601345E+09 -1.505841E+08  1.864116E+09  4.286825E+08 -9.648014E+08
       341   7 -1.394970E+09 -5.455748E+09 -5.569807E+08  1.620375E+09  1.329220E+08 -2.002820E+08
       341   8 -1.317115E+09 -4.990428E+09 -5.990116E+08  1.707929E+09  3.056075E+08 -2.617926E+08
       342   1 -5.072822E+08 -2.330399E+09 -3.003148E+08  7.386965E+08  5.646408E+08 -1.532679E+09
       342   2 -6.872437E+08 -2.497581E+09 -4.693167E+08  6.452561E+08  5.088284E+08 -8.590994E+08
       342   3 -4.002432E+08 -1.971492E+09 -2.394028E+08  7.609902E+08  7.813159E+08 -1.648178E+09
       342   4 -5.821135E+08 -2.150649E+09 -4.079793E+08  6.676277E+08  6.945383E+08 -1.036234E+09
       342   5  9.677748E+07 -3.917253E+08  4.625053E+08  1.979331E+08  5.916876E+08 -1.551603E+09
       342   6  2.116462E+07 -4.639139E+08  3.533060E+08  1.728959E+08  5.335072E+08 -8.786943E+08
       342   7  9.214791E+07 -3.288669E+08  4.011020E+08  2.039067E+08  8.077967E+08 -1.663789E+09
       342   8  1.796244E+07 -4.023254E+08  2.965406E+08  1.788903E+08  7.186977E+08 -1.052640E+09
       343   1 -9.677748E+07  3.917253E+08 -4.625053E+08 -1.979331E+08  5.916876E+08 -1.551603E+09
       343   2 -2.116462E+07  4.639139E+08 -3.533060E+08 -1.728959E+08  5.335072E+08 -8.786943E+08
       343   3 -9.214791E+07  3.288669E+08 -4.011020E+08 -2.039067E+08  8.077967E+08 -1.663789E+09
       343   4 -1.796244E+07  4.023254E+08 -2.965406E+08 -1.788903E+08  7.186977E+08 -1.052640E+09
       343   5  5.072822E+08  2.330399E+09  3.003148E+08 -7.386965E+08  5.646408E+08 -1.532679E+09
       343   6  6.872437E+08  2.497581E+09  4.693167E+08 -6.452561E+08  5.088284E+08 -8.590994E+08
       343   7  4.002432E+08  1.971492E+09  2.394028E+08 -7.609902E+08  7.813159E+08 -1.648178E+09
       343   8  5.821135E+08  2.150649E+09  4.079793E+08 -6.676277E+08  6.945383E+08 -1.036234E+09
       344   1  2.997615E+08  3.106522E+09 -6.697754E+08 -1.161166E+09  2.801287E+08 -9.569584E+08
       344   2  6.392469E+08  3.407690E+09 -2.841535E+08 -1.033107E+09  2.019462E+08 -2.600155E+08
       344   3  2.244619E+08  2.689071E+09 -6.096391E+08 -1.205842E+09  5.005888E+08 -1.018163E+09
       344   4  5.675977E+08  3.007779E+09 -2.206382E+08 -1.077332E+09  3.738012E+08 -3.164259E+08
       344   5  9.266512E+08  5.086162E+09  1.121834E+08 -1.774611E+09  2.073173E+08 -8.982980E+08
       344   6  1.394970E+09  5.455748E+09  5.569807E+08 -1.620375E+09  1.329220E+08 -2.002820E+08
       344   7  8.462646E+08  4.601345E+09  1.505841E+08 -1.864116E+09  4.286825E+08 -9.648014E+08
       344   8  1.317115E+09  4.990428E+09  5.990116E+08 -1.707929E+09  3.056075E+08 -2.617926E+08
       345   1 -7.022803E+08 -3.464000E+09  5.630743E+08  9.799286E+08  3.570391E+08 -8.728486E+08
       345   2 -1.122954E+09 -3.703330E+09  1.723884E+08  9.650743E+08  2.640315E+08 -2.102411E+08
       345   3 -5.660445E+08 -3.337944E+09  7.651918E+08  8.500965E+08  2.898350E+08 -8.367828E+08
       345   4 -9.886532E+08 -3.577516E+09  3.788561E+08  8.404006E+08  2.621372E+08 -2.225987E+08
       345   5 -1.616534E+09 -5.613492E+09 -3.560495E+08  1.461149E+09  3.125469E+08 -8.044826E+08
       345   6 -2.190075E+09 -5.904885E+09 -8.082144E+08  1.454941E+09  2.199796E+08 -1.417694E+08
       345   7 -1.411695E+09 -5.377046E+09 -1.002340E+08  1.262083E+09  2.452709E+08 -7.677805E+08
       345   8 -1.991032E+09 -5.673523E+09 -5.506597E+08  1.263902E+09  2.180194E+08 -1.535158E+08
       346   1 -7.700251E+08 -2.591542E+09 -4.107672E+08  6.339289E+08  6.129378E+08 -1.427500E+09
       346   2 -7.104191E+08 -2.552028E+09 -3.322803E+08  5.515196E+08  5.026060E+08 -1.377955E+09
       346   3 -1.007676E+09 -2.715272E+09 -5.844900E+08  6.197177E+08  5.353582E+08 -7.530795E+08
       346   4 -9.488184E+08 -2.674887E+09 -5.026037E+08  5.405488E+08  4.830155E+08 -7.238581E+08
       346   5  4.610444E+07 -4.419695E+08  4.789433E+08  1.698607E+08  6.300241E+08 -1.450190E+09
       346   6  8.266507E+07 -4.107924E+08  5.480154E+08  1.477792E+08  5.196541E+08 -1.400307E+09
       346   7 -4.515616E+07 -5.027050E+08  3.680361E+08  1.660528E+08  5.526786E+08 -7.757137E+08
       346   8 -7.375828E+06 -4.698745E+08  4.413328E+08  1.448396E+08  5.003009E+08 -7.461673E+08
       347   1 -4.610444E+07  4.419695E+08 -4.789433E+08 -1.698607E+08  6.300241E+08 -1.450190E+09
       347   2 -8.266507E+07  4.107924E+08 -5.480154E+08 -1.477792E+08  5.196541E+08 -1.400307E+09
       347   3  4.515616E+07  5.027050E+08 -3.680361E+08 -1.660528E+08  5.526786E+08 -7.757137E+08
       347   4  7.375828E+06  4.698745E+08 -4.413328E+08 -1.448396E+08  5.003009E+08 -7.461673E+08
       347   5  7.700251E+08  2.591542E+09  4.107672E+08 -6.339289E+08  6.129378E+08 -1.427500E+09
       347   6  7.104191E+08  2.552028E+09  3.322803E+08 -5.515196E+08  5.026060E+08 -1.377955E+09
       347   7  1.007676E+09  2.715272E+09  5.844900E+08 -6.197177E+08  5.353582E+08 -7.530795E+08
       347   8  9.488184E+08  2.674887E+09  5.026037E+08 -5.405488E+08  4.830155E+08 -7.238581E+08
       348   1  7.022803E+08  3.464000E+09 -5.630743E+08 -9.799286E+08  3.570391E+08 -8.728487E+08
       348   2  5.660445E+08  3.337944E+09 -7.651918E+08 -8.500965E+08  2.898350E+08 -8.367828E+08
       348   3  1.122954E+09  3.703330E+09 -1.723884E+08 -9.650743E+08  2.640315E+08 -2.102411E+08
       348   4  9.886532E+08  3.577516E+09 -3.788561E+08 -8.404006E+08  2.621372E+08 -2.225987E+08
       348   5  1.616534E+09  5.613492E+09  3.560495E+08 -1.461149E+09  3.125469E+08 -8.044826E+08
       348   6  1.411695E+09  5.377046E+09  1.002340E+08 -1.262083E+09  2.452709E+08 -7.677805E+08
       348   7  2.190075E+09  5.904885E+09  8.082144E+08 -1.454941E+09  2.199796E+08 -1.417694E+08
       348   8  1.991032E+09  5.673523E+09  5.506597E+08 -1.263902E+09  2.180194E+08 -1.535158E+08
       349   1 -1.057226E+09 -3.584185E+09  6.099983E+08  5.059652E+08  1.259528E+08 -8.365391E+08
       349   2 -1.477368E+09 -3.815888E+09  2.311808E+08  5.158740E+08  6.980829E+07 -2.618052E+08
       349   3 -9.495202E+08 -3.426165E+09  7.466928E+08  3.716048E+08  2.034940E+08 -8.008289E+08
       349   4 -1.369777E+09 -3.659375E+09  3.744527E+08  3.870617E+08  2.106993E+08 -2.525194E+08
       349   5 -2.193372E+09 -5.751457E+09 -3.810270E+08  7.430146E+08  1.050565E+08 -7.641307E+08
       349   6 -2.761348E+09 -6.041991E+09 -8.218444E+08  7.585950E+08  4.779861E+07 -1.895494E+08
       349   7 -2.048236E+09 -5.529390E+09 -2.138895E+08  5.453086E+08  1.826883E+08 -7.300395E+08
       349   8 -2.618390E+09 -5.824270E+09 -6.495995E+08  5.690563E+08  1.887726E+08 -1.818167E+08
       350   1 -1.029935E+09 -2.725225E+09 -4.557355E+08  3.306119E+08  2.859801E+08 -1.374535E+09
       350   2 -9.714515E+08 -2.634743E+09 -3.932467E+08  2.429315E+08  2.966466E+08 -1.338205E+09
       350   3 -1.269936E+09 -2.842301E+09 -6.230182E+08  3.367895E+08  2.350726E+08 -7.490664E+08
       350   4 -1.213287E+09 -2.754528E+09 -5.603760E+08  2.527286E+08  3.070973E+08 -7.379268E+08
       350   5  7.338570E+06 -4.469128E+08  5.389403E+08  8.858719E+07  2.925743E+08 -1.398341E+09
       350   6  3.052648E+07 -4.151510E+08  5.732241E+08  6.509330E+07  3.032286E+08 -1.361792E+09
       350   7 -8.237699E+07 -5.036909E+08  4.348324E+08  9.024248E+07  2.418174E+08 -7.728515E+08
       350   8 -5.904019E+07 -4.720146E+08  4.706520E+08  6.771844E+07  3.138308E+08 -7.615018E+08
       351   1 -7.338571E+06  4.469128E+08 -5.389403E+08 -8.858719E+07  2.925743E+08 -1.398341E+09
       351   2 -3.052648E+07  4.151510E+08 -5.732241E+08 -6.509330E+07  3.032286E+08 -1.361792E+09
       351   3  8.237699E+07  5.036909E+08 -4.348324E+08 -9.024248E+07  2.418174E+08 -7.728515E+08
       351   4  5.904019E+07  4.720146E+08 -4.706520E+08 -6.771844E+07  3.138308E+08 -7.615018E+08
       351   5  1.029935E+09  2.725225E+09  4.557355E+08 -3.306119E+08  2.859801E+08 -1.374535E+09
       351   6  9.714514E+08  2.634743E+09  3.932467E+08 -2.429315E+08  2.966466E+08 -1.338205E+09
       351   7  1.269936E+09  2.842301E+09  6.230182E+08 -3.367895E+08  2.350726E+08 -7.490664E+08
       351   8  1.213287E+09  2.754528E+09  5.603760E+08 -2.527286E+08  3.070973E+08 -7.379268E+08
       352   1  1.057226E+09  3.584185E+09 -6.099983E+08 -5.059652E+08  1.259528E+08 -8.365391E+08
       352   2  9.495202E+08  3.426165E+09 -7.466928E+08 -3.716048E+08  2.034940E+08 -8.008289E+08
       352   3  1.477368E+09  3.815888E+09 -2.311808E+08 -5.158740E+08  6.980829E+07 -2.618052E+08
       352   4  1.369777E+09  3.659375E+09 -3.744527E+08 -3.870617E+08  2.106993E+08 -2.525194E+08
       352   5  2.193372E+09  5.751457E+09  3.810270E+08 -7.430146E+08  1.050565E+08 -7.641307E+08
       352   6  2.048236E+09  5.529390E+09  2.138895E+08 -5.453086E+08  1.826883E+08 -7.300395E+08
       352   7  2.761348E+09  6.041991E+09  8.218444E+08 -7.585950E+08  4.779861E+07 -1.895494E+08
       352   8  2.618390E+09  5.824270E+09  6.495995E+08 -5.690563E+08  1.887726E+08 -1.818167E+08
       353   1 -1.157959E+09 -3.507118E+09  6.807705E+08  6.467144E+07 -6.589619E+07 -8.063305E+08
       353   2 -1.560817E+09 -3.736977E+09  3.173931E+08  6.190763E+07 -9.562211E+07 -2.723321E+08
       353   3 -1.157718E+09 -3.506411E+09  6.811655E+08 -6.108226E+07  6.474138E+07 -8.052738E+08
       353   4 -1.560491E+09 -3.736209E+09  3.179737E+08 -5.865248E+07  9.578974E+07 -2.714083E+08
       353   5 -2.364134E+09 -5.653999E+09 -3.251463E+08  9.537129E+07 -6.590910E+07 -7.350059E+08
       353   6 -2.908838E+09 -5.944647E+09 -7.493139E+08  9.126069E+07 -9.567572E+07 -2.010088E+08
       353   7 -2.363924E+09 -5.653253E+09 -3.247491E+08 -8.930411E+07  6.472845E+07 -7.340083E+08
       353   8 -2.908534E+09 -5.943840E+09 -7.487287E+08 -8.578767E+07  9.573612E+07 -2.001418E+08
       354   1 -1.110560E+09 -2.691726E+09 -4.455429E+08  4.214247E+07 -3.226505E+07 -1.343974E+09
       354   2 -1.110386E+09 -2.691203E+09 -4.452886E+08 -4.002711E+07  2.996178E+07 -1.342753E+09
       354   3 -1.341870E+09 -2.809994E+09 -6.084908E+08  4.035151E+07 -6.058005E+07 -7.576092E+08
       354   4 -1.341673E+09 -2.809467E+09 -6.081916E+08 -3.842449E+07  6.062581E+07 -7.566015E+08
       354   5 -3.989129E+06 -4.276612E+08  5.656478E+08  1.129204E+07 -3.225832E+07 -1.367840E+09
       354   6 -3.923386E+06 -4.275020E+08  5.657604E+08 -1.072523E+07  2.996851E+07 -1.366603E+09
       354   7 -9.049547E+07 -4.838780E+08  4.647565E+08  1.081216E+07 -6.056278E+07 -7.814742E+08
       354   8 -9.040802E+07 -4.837022E+08  4.649175E+08 -1.029581E+07  6.064309E+07 -7.804518E+08
       355   1  3.989128E+06  4.276612E+08 -5.656478E+08 -1.129204E+07 -3.225832E+07 -1.367840E+09
       355   2  3.923386E+06  4.275020E+08 -5.657604E+08  1.072523E+07  2.996851E+07 -1.366603E+09
       355   3  9.049546E+07  4.838780E+08 -4.647565E+08 -1.081216E+07 -6.056278E+07 -7.814742E+08
       355   4  9.040802E+07  4.837022E+08 -4.649175E+08  1.029581E+07  6.064309E+07 -7.804518E+08
       355   5  1.110560E+09  2.691726E+09  4.455429E+08 -4.214247E+07 -3.226505E+07 -1.343974E+09
       355   6  1.110386E+09  2.691203E+09  4.452886E+08  4.002711E+07  2.996178E+07 -1.342753E+09
       355   7  1.341870E+09  2.809994E+09  6.084908E+08 -4.035151E+07 -6.058005E+07 -7.576092E+08
       355   8  1.341673E+09  2.809467E+09  6.081916E+08  3.842449E+07  6.062581E+07 -7.566015E+08
       356   1  1.157959E+09  3.507118E+09 -6.807705E+08 -6.467144E+07 -6.589619E+07 -8.063306E+08
       356   2  1.157718E+09  3.506411E+09 -6.811655E+08  6.108226E+07  6.474138E+07 -8.052738E+08
       356   3  1.560817E+09  3.736977E+09 -3.173931E+08 -6.190763E+07 -9.562211E+07 -2.723321E+08
       356   4  1.560491E+09  3.736209E+09 -3.179737E+08  5.865248E+07  9.578974E+07 -2.714083E+08
       356   5  2.364134E+09  5.653999E+09  3.251463E+08 -9.537129E+07 -6.590910E+07 -7.350059E+08
       356   6  2.363924E+09  5.653253E+09  3.247491E+08  8.930411E+07  6.472845E+07 -7.340083E+08
       356   7  2.908838E+09  5.944647E+09  7.493139E+08 -9.126069E+07 -9.567572E+07 -2.010088E+08
       356   8  2.908534E+09  5.943840E+09  7.487287E+08  8.578767E+07  9.573612E+07 -2.001418E+08
       357   1 -9.483350E+08 -3.428553E+09  7.466396E+08 -3.677504E+08 -2.038200E+08 -8.010006E+08
       357   2 -1.369942E+09 -3.662699E+09  3.740460E+08 -3.836609E+08 -2.102428E+08 -2.535038E+08
       357   3 -1.055876E+09 -3.585850E+09  6.105295E+08 -5.027040E+08 -1.268740E+08 -8.354110E+08
       357   4 -1.477162E+09 -3.818301E+09  2.317126E+08 -5.129782E+08 -6.952665E+07 -2.615930E+08
       357   5 -2.045896E+09 -5.533074E+09 -2.139850E+08 -5.390954E+08 -1.830807E+08 -7.302058E+08
       357   6 -2.618544E+09 -5.829610E+09 -6.506080E+08 -5.635401E+08 -1.884581E+08 -1.827828E+08
       357   7 -2.190993E+09 -5.754373E+09 -3.805622E+08 -7.378475E+08 -1.060495E+08 -7.631059E+08
       357   8 -2.761216E+09 -6.046340E+09 -8.219157E+08 -7.539877E+08 -4.766405E+07 -1.894238E+08
       358   1 -9.709203E+08 -2.636323E+09 -3.934404E+08 -2.405726E+08 -2.979784E+08 -1.338140E+09
       358   2 -1.029315E+09 -2.726325E+09 -4.556418E+08 -3.285901E+08 -2.875666E+08 -1.373106E+09
       358   3 -1.213591E+09 -2.756738E+09 -5.609224E+08 -2.506572E+08 -3.066976E+08 -7.388388E+08
       358   4 -1.270071E+09 -2.843964E+09 -6.231701E+08 -3.349997E+08 -2.347133E+08 -7.487787E+08
       358   5  3.071988E+07 -4.155233E+08  5.732914E+08 -6.446123E+07 -3.045355E+08 -1.361736E+09
       358   6  7.605140E+06 -4.471071E+08  5.391997E+08 -8.804545E+07 -2.941344E+08 -1.396892E+09
       358   7 -5.903395E+07 -4.725189E+08  4.707106E+08 -6.716339E+07 -3.133859E+08 -7.624255E+08
       358   8 -8.224952E+07 -5.039729E+08  4.351738E+08 -8.976291E+07 -2.414114E+08 -7.725472E+08
       359   1 -3.071988E+07  4.155233E+08 -5.732914E+08  6.446123E+07 -3.045355E+08 -1.361736E+09
       359   2 -7.605140E+06  4.471071E+08 -5.391997E+08  8.804545E+07 -2.941344E+08 -1.396892E+09
       359   3  5.903395E+07  4.725189E+08 -4.707106E+08  6.716339E+07 -3.133859E+08 -7.624255E+08
       359   4  8.224952E+07  5.039729E+08 -4.351738E+08  8.976291E+07 -2.414114E+08 -7.725472E+08
       359   5  9.709203E+08  2.636323E+09  3.934404E+08  2.405726E+08 -2.979784E+08 -1.338140E+09
       359   6  1.029315E+09  2.726325E+09  4.556418E+08  3.285901E+08 -2.875666E+08 -1.373106E+09
       359   7  1.213591E+09  2.756738E+09  5.609224E+08  2.506572E+08 -3.066976E+08 -7.388388E+08
       359   8  1.270071E+09  2.843964E+09  6.231701E+08  3.349997E+08 -2.347133E+08 -7.487787E+08
       360   1  9.483350E+08  3.428553E+09 -7.466396E+08  3.677504E+08 -2.038200E+08 -8.010006E+08
       360   2  1.055876E+09  3.585850E+09 -6.105295E+08  5.027040E+08 -1.268740E+08 -8.354110E+08
       360   3  1.369942E+09  3.662699E+09 -3.740460E+08  3.836609E+08 -2.102428E+08 -2.535038E+08
       360   4  1.477162E+09  3.818301E+09 -2.317126E+08  5.129782E+08 -6.952665E+07 -2.615930E+08
       360   5  2.045896E+09  5.533074E+09  2.139850E+08  5.390954E+08 -1.830807E+08 -7.302058E+08
       360   6  2.190993E+09  5.754373E+09  3.805622E+08  7.378475E+08 -1.060495E+08 -7.631059E+08
       360   7  2.618544E+09  5.829610E+09  6.506080E+08  5.635401E+08 -1.884581E+08 -1.827828E+08
       360   8  2.761216E+09  6.046340E+09  8.219157E+08  7.539877E+08 -4.766405E+07 -1.894238E+08
       361   1 -5.637760E+08 -3.343157E+09  7.654460E+08 -8.469167E+08 -2.889616E+08 -8.367193E+08
       361   2 -9.879946E+08 -3.583116E+09  3.790616E+08 -8.380516E+08 -2.614762E+08 -2.235105E+08
       361   3 -7.007112E+08 -3.471000E+09  5.636628E+08 -9.777493E+08 -3.571025E+08 -8.732840E+08
       361   4 -1.122990E+09 -3.710710E+09  1.726465E+08 -9.635643E+08 -2.637640E+08 -2.112481E+08
       361   5 -1.408168E+09 -5.385049E+09 -1.004390E+08 -1.257443E+09 -2.447219E+08 -7.676551E+08
       361   6 -1.990636E+09 -5.682876E+09 -5.516590E+08 -1.260259E+09 -2.176304E+08 -1.543772E+08
       361   7 -1.613952E+09 -5.623405E+09 -3.560309E+08 -1.458123E+09 -3.129263E+08 -8.047818E+08
       361   8 -2.190517E+09 -5.916023E+09 -8.092054E+08 -1.452661E+09 -2.199762E+08 -1.426542E+08
       362   1 -7.092542E+08 -2.555595E+09 -3.325560E+08 -5.494334E+08 -5.020690E+08 -1.377875E+09
       362   2 -7.695730E+08 -2.596715E+09 -4.112889E+08 -6.324547E+08 -6.131381E+08 -1.428506E+09
       362   3 -9.486517E+08 -2.678649E+09 -5.030939E+08 -5.390696E+08 -4.821655E+08 -7.248686E+08
       362   4 -1.008166E+09 -2.720586E+09 -5.852749E+08 -6.187491E+08 -5.349300E+08 -7.544423E+08
       362   5  8.316516E+07 -4.115603E+08  5.483801E+08 -1.472202E+08 -5.189855E+08 -1.400280E+09
       362   6  4.660340E+07 -4.429778E+08  4.796852E+08 -1.694657E+08 -6.300949E+08 -1.451268E+09
       362   7 -7.082681E+06 -4.706339E+08  4.417812E+08 -1.444433E+08 -4.993318E+08 -7.472299E+08
       362   8 -4.488360E+07 -5.037250E+08  3.687681E+08 -1.657933E+08 -5.521331E+08 -7.771456E+08
       363   1 -8.316516E+07  4.115603E+08 -5.483801E+08  1.472202E+08 -5.189855E+08 -1.400280E+09
       363   2 -4.660340E+07  4.429778E+08 -4.796852E+08  1.694657E+08 -6.300949E+08 -1.451268E+09
       363   3  7.082681E+06  4.706339E+08 -4.417812E+08  1.444433E+08 -4.993318E+08 -7.472299E+08
       363   4  4.488360E+07  5.037250E+08 -3.687681E+08  1.657933E+08 -5.521331E+08 -7.771456E+08
       363   5  7.092542E+08  2.555595E+09  3.325560E+08  5.494334E+08 -5.020690E+08 -1.377875E+09
       363   6  7.695730E+08  2.596715E+09  4.112889E+08  6.324547E+08 -6.131381E+08 -1.428506E+09
       363   7  9.486517E+08  2.678649E+09  5.030939E+08  5.390696E+08 -4.821655E+08 -7.248686E+08
       363   8  1.008166E+09  2.720586E+09  5.852749E+08  6.187491E+08 -5.349300E+08 -7.544423E+08
       364   1  5.637760E+08  3.343157E+09 -7.654460E+08  8.469167E+08 -2.889616E+08 -8.367193E+08
       364   2  7.007112E+08  3.471000E+09 -5.636628E+08  9.777493E+08 -3.571025E+08 -8.732840E+08
       364   3  9.879945E+08  3.583116E+09 -3.790616E+08  8.380516E+08 -2.614762E+08 -2.235105E+08
       364   4  1.122990E+09  3.710710E+09 -1.726465E+08  9.635643E+08 -2.637640E+08 -2.112481E+08
       364   5  1.408168E+09  5.385049E+09  1.004390E+08  1.257443E+09 -2.447219E+08 -7.676551E+08
       364   6  1.613952E+09  5.623405E+09  3.560309E+08  1.458123E+09 -3.129263E+08 -8.047818E+08
       364   7  1.990636E+09  5.682876E+09  5.516590E+08  1.260259E+09 -2.176304E+08 -1.543772E+08
       364   8  2.190517E+09  5.916023E+09  8.092054E+08  1.452661E+09 -2.199762E+08 -1.426542E+08
       365   1 -2.980494E+08 -3.113994E+09  6.710815E+08 -1.161087E+09 -2.793060E+08 -9.578196E+08
       365   2 -6.394629E+08 -3.414748E+09  2.848286E+08 -1.033465E+09 -2.020577E+08 -2.607130E+08
       365   3 -2.232490E+08 -2.697703E+09  6.115972E+08 -1.207072E+09 -5.003414E+08 -1.020342E+09
       365   4 -5.689870E+08 -3.017124E+09  2.205025E+08 -1.078910E+09 -3.740501E+08 -3.174520E+08
       365   5 -9.246959E+08 -5.097002E+09 -1.118147E+08 -1.774587E+09 -2.068482E+08 -8.987917E+08
       365   6 -1.396017E+09 -5.466473E+09 -5.576548E+08 -1.620832E+09 -1.332102E+08 -2.006721E+08
       365   7 -8.450298E+08 -4.613506E+09 -1.496777E+08 -1.865957E+09 -4.287438E+08 -9.663728E+08
       365   8 -1.319516E+09 -5.003664E+09 -6.006181E+08 -1.710085E+09 -3.059901E+08 -2.622737E+08
       366   1 -5.067272E+08 -2.336045E+09 -3.007061E+08 -7.386181E+08 -5.639545E+08 -1.534631E+09
       366   2 -4.004202E+08 -1.978409E+09 -2.401854E+08 -7.617840E+08 -7.814023E+08 -1.652145E+09
       366   3 -6.878378E+08 -2.502753E+09 -4.699430E+08 -6.455102E+08 -5.089128E+08 -8.604765E+08
       366   4 -5.836641E+08 -2.157643E+09 -4.094048E+08 -6.687050E+08 -6.949651E+08 -1.038486E+09
       366   5  9.740594E+07 -3.927584E+08  4.635199E+08 -1.979121E+08 -5.909323E+08 -1.553660E+09
       366   6  9.266885E+07 -3.301520E+08  4.022185E+08 -2.041194E+08 -8.078202E+08 -1.667881E+09
       366   7  2.147148E+07 -4.648336E+08  3.542256E+08 -1.729639E+08 -5.335405E+08 -8.801655E+08
       366   8  1.802753E+07 -4.037189E+08  2.972800E+08 -1.791790E+08 -7.190801E+08 -1.055010E+09
       367   1 -9.740594E+07  3.927584E+08 -4.635199E+08  1.979121E+08 -5.909323E+08 -1.553660E+09
       367   2 -9.266885E+07  3.301520E+08 -4.022185E+08  2.041194E+08 -8.078202E+08 -1.667881E+09
       367   3 -2.147148E+07  4.648336E+08 -3.542256E+08  1.729639E+08 -5.335405E+08 -8.801655E+08
       367   4 -1.802753E+07  4.037189E+08 -2.972800E+08  1.791790E+08 -7.190801E+08 -1.055010E+09
       367   5  5.067272E+08  2.336045E+09  3.007061E+08  7.386181E+08 -5.639545E+08 -1.534631E+09
       367   6  4.004202E+08  1.978409E+09  2.401854E+08  7.617840E+08 -7.814023E+08 -1.652145E+09
       367   7  6.878378E+08  2.502753E+09  4.699430E+08  6.455102E+08 -5.089128E+08 -8.604765E+08
       367   8  5.836641E+08  2.157643E+09  4.094048E+08  6.687050E+08 -6.949651E+08 -1.038486E+09
       368   1  2.980494E+08  3.113994E+09 -6.710815E+08  1.161087E+09 -2.793060E+08 -9.578196E+08
       368   2  2.232489E+08  2.697703E+09 -6.115972E+08  1.207072E+09 -5.003414E+08 -1.020342E+09
       368   3  6.394629E+08  3.414748E+09 -2.848286E+08  1.033465E+09 -2.020578E+08 -2.607130E+08
       368   4  5.689870E+08  3.017124E+09 -2.205025E+08  1.078910E+09 -3.740501E+08 -3.174520E+08
       368   5  9.246959E+08  5.097002E+09  1.118147E+08  1.774587E+09 -2.068482E+08 -8.987917E+08
       368   6  8.450298E+08  4.613506E+09  1.496777E+08  1.865957E+09 -4.287438E+08 -9.663728E+08
       368   7  1.396017E+09  5.466473E+09  5.576548E+08  1.620832E+09 -1.332102E+08 -2.006721E+08
       368   8  1.319516E+09  5.003664E+09  6.006181E+08  1.710085E+09 -3.059901E+08 -2.622738E+08
       369   1 -3.882160E+08 -2.315438E+09  5.620137E+08  1.029093E+09  3.303783E+08 -8.563779E+08
       369   2 -3.230993E+08 -1.921805E+09  4.936614E+08  1.084520E+09  4.956788E+08 -1.106174E+09
       369   3 -7.015649E+08 -2.580408E+09  2.400965E+08  9.131109E+08  2.933943E+08 -3.088302E+08
       369   4 -6.443500E+08 -2.207298E+09  1.575240E+08  9.676023E+08  4.017682E+08 -5.438523E+08
       369   5 -9.992656E+08 -3.787595E+09 -6.294821E+07  1.635488E+09  2.658685E+08 -8.138025E+08
       369   6 -9.396542E+08 -3.352604E+09 -1.205446E+08  1.740153E+09  4.314013E+08 -1.065074E+09
       369   7 -1.437268E+09 -4.114229E+09 -4.407608E+08  1.499584E+09  2.298667E+08 -2.659767E+08
       369   8 -1.384157E+09 -3.700698E+09 -5.124381E+08  1.601683E+09  3.384548E+08 -5.024223E+08
       370   1 -4.978135E+08 -1.769185E+09 -2.350841E+08  6.365686E+08  6.510863E+08 -1.462990E+09
       370   2 -6.688138E+08 -1.920214E+09 -3.791630E+08  5.508475E+08  6.333010E+08 -9.371326E+08
       370   3 -3.944731E+08 -1.420281E+09 -1.745080E+08  6.660693E+08  8.437014E+08 -1.888374E+09
       370   4 -5.734544E+08 -1.588569E+09 -3.329791E+08  5.800806E+08  7.868400E+08 -1.423173E+09
       370   5  5.455778E+07 -2.861052E+08  3.755513E+08  1.705680E+08  6.741955E+08 -1.475906E+09
       370   6 -1.131004E+07 -3.466216E+08  2.901657E+08  1.475992E+08  6.572966E+08 -9.497972E+08
       370   7  5.053138E+07 -2.243330E+08  3.177777E+08  1.784727E+08  8.670203E+08 -1.902621E+09
       370   8 -2.035535E+07 -2.923544E+08  2.218149E+08  1.554321E+08  8.110289E+08 -1.437122E+09
       371   1 -5.455778E+07  2.861052E+08 -3.755513E+08 -1.705680E+08  6.741955E+08 -1.475906E+09
       371   2  1.131004E+07  3.466216E+08 -2.901657E+08 -1.475992E+08  6.572966E+08 -9.497972E+08
       371   3 -5.053138E+07  2.243330E+08 -3.177777E+08 -1.784727E+08  8.670203E+08 -1.902621E+09
       371   4  2.035535E+07  2.923544E+08 -2.218149E+08 -1.554321E+08  8.110289E+08 -1.437122E+09
       371   5  4.978135E+08  1.769185E+09  2.350841E+08 -6.365686E+08  6.510863E+08 -1.462990E+09
       371   6  6.688137E+08  1.920214E+09  3.791630E+08 -5.508475E+08  6.333010E+08 -9.371326E+08
       371   7  3.944731E+08  1.420281E+09  1.745080E+08 -6.660693E+08  8.437014E+08 -1.888374E+09
       371   8  5.734544E+08  1.588569E+09  3.329791E+08 -5.800806E+08  7.868400E+08 -1.423173E+09
       372   1  3.882160E+08  2.315438E+09 -5.620137E+08 -1.029093E+09  3.303783E+08 -8.563779E+08
       372   2  7.015649E+08  2.580408E+09 -2.400965E+08 -9.131109E+08  2.933943E+08 -3.088302E+08
       372   3  3.230993E+08  1.921805E+09 -4.936614E+08 -1.084520E+09  4.956788E+08 -1.106174E+09
       372   4  6.443500E+08  2.207298E+09 -1.575240E+08 -9.676023E+08  4.017682E+08 -5.438523E+08
       372   5  9.992656E+08  3.787595E+09  6.294821E+07 -1.635488E+09  2.658685E+08 -8.138025E+08
       372   6  1.437268E+09  4.114229E+09  4.407608E+08 -1.499584E+09  2.298667E+08 -2.659767E+08
       372   7  9.396542E+08  3.352604E+09  1.205446E+08 -1.740153E+09  4.314013E+08 -1.065074E+09
       372   8  1.384157E+09  3.700698E+09  5.124381E+08 -1.601683E+09  3.384548E+08 -5.024223E+08
       373   1 -9.078426E+08 -2.555061E+09  4.577725E+08  1.042909E+09  2.993394E+08 -7.300929E+08
       373   2 -1.334461E+09 -2.784455E+09  1.158904E+08  1.021224E+09  2.121629E+08 -2.310705E+08
       373   3 -7.722866E+08 -2.445401E+09  6.628611E+08  8.906050E+08  3.381480E+08 -6.493799E+08
       373   4 -1.201448E+09 -2.675053E+09  3.235785E+08  8.745529E+08  3.336404E+08 -1.955290E+08
       373   5 -1.837885E+09 -4.160226E+09 -3.027895E+08  1.574167E+09  2.577253E+08 -6.805547E+08
       373   6 -2.437216E+09 -4.454473E+09 -7.159416E+08  1.553699E+09  1.712510E+08 -1.813640E+08
       373   7 -1.642643E+09 -3.965792E+09 -5.436297E+07  1.341167E+09  2.964207E+08 -5.987544E+08
       373   8 -2.247923E+09 -4.263940E+09 -4.670298E+08  1.329401E+09  2.926243E+08 -1.447752E+08
       374   1 -8.447547E+08 -1.948984E+09 -3.463083E+08  6.691558E+08  5.784263E+08 -1.253335E+09
       374   2 -7.844822E+08 -1.916377E+09 -2.656878E+08  5.723319E+08  5.607885E+08 -1.112616E+09
       374   3 -1.091634E+09 -2.071454E+09 -5.026744E+08  6.517021E+08  4.999037E+08 -7.395128E+08
       374   4 -1.034876E+09 -2.040490E+09 -4.252066E+08  5.584348E+08  5.556100E+08 -6.192735E+08
       374   5 -1.864038E+07 -3.145177E+08  3.918659E+08  1.792998E+08  5.945923E+08 -1.268150E+09
       374   6  1.979068E+07 -2.834996E+08  4.654573E+08  1.533559E+08  5.771214E+08 -1.129035E+09
       374   7 -1.040337E+08 -3.665757E+08  3.050690E+08  1.746231E+08  5.150335E+08 -7.545759E+08
       374   8 -6.722234E+07 -3.366759E+08  3.762338E+08  1.496322E+08  5.708937E+08 -6.358818E+08
       375   1  1.864038E+07  3.145177E+08 -3.918659E+08 -1.792998E+08  5.945923E+08 -1.268150E+09
       375   2 -1.979068E+07  2.834996E+08 -4.654573E+08 -1.533559E+08  5.771214E+08 -1.129035E+09
       375   3  1.040337E+08  3.665757E+08 -3.050690E+08 -1.746231E+08  5.150335E+08 -7.545759E+08
       375   4  6.722234E+07  3.366759E+08 -3.762338E+08 -1.496322E+08  5.708937E+08 -6.358818E+08
       375   5  8.447547E+08  1.948984E+09  3.463083E+08 -6.691558E+08  5.784263E+08 -1.253335E+09
       375   6  7.844822E+08  1.916377E+09  2.656878E+08 -5.723319E+08  5.607885E+08 -1.112616E+09
       375   7  1.091634E+09  2.071454E+09  5.026744E+08 -6.517021E+08  4.999037E+08 -7.395128E+08
       375   8  1.034876E+09  2.040490E+09  4.252066E+08 -5.584348E+08  5.556100E+08 -6.192735E+08
       376   1  9.078426E+08  2.555061E+09 -4.577725E+08 -1.042909E+09  2.993394E+08 -7.300929E+08
       376   2  7.722866E+08  2.445401E+09 -6.628611E+08 -8.906050E+08  3.381480E+08 -6.493799E+08
       376   3  1.334461E+09  2.784455E+09 -1.158904E+08 -1.021224E+09  2.121629E+08 -2.310705E+08
       376   4  1.201448E+09  2.675053E+09 -3.235785E+08 -8.745528E+08  3.336404E+08 -1.955290E+08
       376   5  1.837885E+09  4.160226E+09  3.027895E+08 -1.574167E+09  2.577253E+08 -6.805547E+08
       376   6  1.642643E+09  3.965792E+09  5.436297E+07 -1.341167E+09  2.964207E+08 -5.987544E+08
       376   7  2.437216E+09  4.454473E+09  7.159416E+08 -1.553699E+09  1.712510E+08 -1.813640E+08
       376   8  2.247923E+09  4.263940E+09  4.670298E+08 -1.329401E+09  2.926243E+08 -1.447752E+08
       377   1 -1.243259E+09 -2.682851E+09  5.231439E+08  5.750067E+08  6.688352E+07 -6.590838E+08
       377   2 -1.673586E+09 -2.908887E+09  1.866237E+08  5.725537E+08  5.016170E+06 -2.474637E+08
       377   3 -1.149641E+09 -2.570212E+09  6.524156E+08  4.174006E+08  2.562692E+08 -6.150242E+08
       377   4 -1.582021E+09 -2.798349E+09  3.167481E+08  4.209789E+08  2.709595E+08 -2.233283E+08
       377   5 -2.381567E+09 -4.341175E+09 -3.158459E+08  8.393717E+08  4.553075E+07 -6.046596E+08
       377   6 -2.972113E+09 -4.633852E+09 -7.204239E+08  8.358024E+08 -1.605814E+07 -1.930014E+08
       377   7 -2.262860E+09 -4.194712E+09 -1.688999E+08  6.095720E+08  2.348941E+08 -5.601662E+08
       377   8 -2.856954E+09 -4.491007E+09 -5.735292E+08  6.147969E+08  2.498646E+08 -1.684488E+08
       378   1 -1.096283E+09 -2.081537E+09 -3.820464E+08  3.771779E+08  2.323966E+08 -1.101619E+09
       378   2 -1.048662E+09 -2.021437E+09 -3.294602E+08  2.737183E+08  3.524358E+08 -1.056201E+09
       378   3 -1.353216E+09 -2.204366E+09 -5.433299E+08  3.755655E+08  1.672108E+08 -6.415505E+08
       378   4 -1.307108E+09 -2.145810E+09 -4.905698E+08  2.760652E+08  3.643763E+08 -6.165176E+08
       378   5 -5.246709E+07 -3.164653E+08  4.606199E+08  1.010645E+08  2.389318E+08 -1.120176E+09
       378   6 -3.114646E+07 -2.918007E+08  4.946856E+08  7.334261E+07  3.589684E+08 -1.074708E+09
       378   7 -1.413120E+08 -3.693768E+08  3.707380E+08  1.006325E+08  1.737782E+08 -6.601031E+08
       378   8 -1.199359E+08 -3.446652E+08  4.059252E+08  7.397144E+07  3.709412E+08 -6.350220E+08
       379   1  5.246709E+07  3.164653E+08 -4.606199E+08 -1.010645E+08  2.389318E+08 -1.120176E+09
       379   2  3.114646E+07  2.918007E+08 -4.946856E+08 -7.334261E+07  3.589684E+08 -1.074708E+09
       379   3  1.413120E+08  3.693768E+08 -3.707380E+08 -1.006325E+08  1.737782E+08 -6.601031E+08
       379   4  1.199359E+08  3.446652E+08 -4.059252E+08 -7.397144E+07  3.709412E+08 -6.350220E+08
       379   5  1.096283E+09  2.081537E+09  3.820464E+08 -3.771779E+08  2.323966E+08 -1.101619E+09
       379   6  1.048662E+09  2.021437E+09  3.294602E+08 -2.737183E+08  3.524358E+08 -1.056201E+09
       379   7  1.353216E+09  2.204366E+09  5.433299E+08 -3.755655E+08  1.672108E+08 -6.415505E+08
       379   8  1.307108E+09  2.145810E+09  4.905698E+08 -2.760652E+08  3.643763E+08 -6.165176E+08
       380   1  1.243259E+09  2.682851E+09 -5.231439E+08 -5.750067E+08  6.688352E+07 -6.590838E+08
       380   2  1.149641E+09  2.570212E+09 -6.524156E+08 -4.174006E+08  2.562692E+08 -6.150242E+08
       380   3  1.673586E+09  2.908887E+09 -1.866237E+08 -5.725537E+08  5.016171E+06 -2.474637E+08
       380   4  1.582021E+09  2.798349E+09 -3.167481E+08 -4.209789E+08  2.709595E+08 -2.233283E+08
       380   5  2.381567E+09  4.341175E+09  3.158459E+08 -8.393717E+08  4.553075E+07 -6.046596E+08
       380   6  2.262860E+09  4.194712E+09  1.688999E+08 -6.095720E+08  2.348941E+08 -5.601662E+08
       380   7  2.972113E+09  4.633852E+09  7.204239E+08 -8.358024E+08 -1.605814E+07 -1.930014E+08
       380   8  2.856954E+09  4.491007E+09  5.735292E+08 -6.147969E+08  2.498646E+08 -1.684488E+08
       381   1 -1.325827E+09 -2.654133E+09  5.991770E+08  7.787078E+07 -1.196441E+08 -6.275616E+08
       381   2 -1.741504E+09 -2.877341E+09  2.708045E+08  7.476987E+07 -1.551008E+08 -2.489882E+08
       381   3 -1.325539E+09 -2.653497E+09  5.997961E+08 -7.204736E+07  1.202251E+08 -6.263652E+08
       381   4 -1.741148E+09 -2.876656E+09  2.715614E+08 -6.937184E+07  1.563817E+08 -2.479387E+08
       381   5 -2.531284E+09 -4.326241E+09 -2.640926E+08  1.124839E+08 -1.197250E+08 -5.713839E+08
       381   6 -3.095792E+09 -4.613231E+09 -6.562490E+08  1.079878E+08 -1.552066E+08 -1.928114E+08
       381   7 -2.531015E+09 -4.325546E+09 -2.634615E+08 -1.036802E+08  1.201441E+08 -5.702264E+08
       381   8 -3.095448E+09 -4.612488E+09 -6.554782E+08 -9.984736E+07  1.562759E+08 -1.917992E+08
       382   1 -1.167966E+09 -2.080859E+09 -3.756190E+08  5.142281E+07 -8.455974E+07 -1.068791E+09
       382   2 -1.167828E+09 -2.080467E+09 -3.753521E+08 -4.769035E+07  8.558520E+07 -1.067565E+09
       382   3 -1.417089E+09 -2.202735E+09 -5.327716E+08  4.937995E+07 -1.213162E+08 -6.424112E+08
       382   4 -1.416925E+09 -2.202333E+09 -5.324615E+08 -4.591433E+07  1.235535E+08 -6.413794E+08
       382   5 -5.996373E+07 -3.045725E+08  4.896677E+08  1.377870E+07 -8.453452E+07 -1.087634E+09
       382   6 -5.988110E+07 -3.044220E+08  4.898452E+08 -1.277859E+07  8.561043E+07 -1.086395E+09
       382   7 -1.460812E+08 -3.565946E+08  4.023729E+08  1.323132E+07 -1.212829E+08 -6.612536E+08
       382   8 -1.459781E+08 -3.564276E+08  4.025945E+08 -1.230271E+07  1.235868E+08 -6.602097E+08
       383   1  5.996373E+07  3.045725E+08 -4.896677E+08 -1.377870E+07 -8.453452E+07 -1.087634E+09
       383   2  5.988110E+07  3.044220E+08 -4.898452E+08  1.277859E+07  8.561043E+07 -1.086395E+09
       383   3  1.460812E+08  3.565946E+08 -4.023729E+08 -1.323132E+07 -1.212829E+08 -6.612536E+08
       383   4  1.459781E+08  3.564276E+08 -4.025945E+08  1.230271E+07  1.235868E+08 -6.602097E+08
       383   5  1.167966E+09  2.080859E+09  3.756190E+08 -5.142281E+07 -8.455974E+07 -1.068791E+09
       383   6  1.167828E+09  2.080467E+09  3.753521E+08  4.769035E+07  8.558520E+07 -1.067565E+09
       383   7  1.417089E+09  2.202735E+09  5.327716E+08 -4.937995E+07 -1.213162E+08 -6.424112E+08
       383   8  1.416925E+09  2.202333E+09  5.324614E+08  4.591432E+07  1.235535E+08 -6.413794E+08
       384   1  1.325827E+09  2.654133E+09 -5.991770E+08 -7.787078E+07 -1.196441E+08 -6.275616E+08
       384   2  1.325539E+09  2.653497E+09 -5.997961E+08  7.204736E+07  1.202251E+08 -6.263652E+08
       384   3  1.741504E+09  2.877341E+09 -2.708045E+08 -7.476987E+07 -1.551008E+08 -2.489882E+08
       384   4  1.741148E+09  2.876656E+09 -2.715614E+08  6.937184E+07  1.563817E+08 -2.479387E+08
       384   5  2.531284E+09  4.326241E+09  2.640926E+08 -1.124839E+08 -1.197250E+08 -5.713839E+08
       384   6  2.531015E+09  4.325546E+09  2.634615E+08  1.036802E+08  1.201441E+08 -5.702264E+08
       384   7  3.095792E+09  4.613231E+09  6.562490E+08 -1.079878E+08 -1.552066E+08 -1.928114E+08
       384   8  3.095448E+09  4.612488E+09  6.554782E+08  9.984736E+07  1.562759E+08 -1.917992E+08
       385   1 -1.149907E+09 -2.573304E+09  6.522454E+08 -4.116564E+08 -2.555865E+08 -6.156744E+08
       385   2 -1.583073E+09 -2.801915E+09  3.164070E+08 -4.157932E+08 -2.699742E+08 -2.249240E+08
       385   3 -1.243333E+09 -2.685518E+09  5.238289E+08 -5.697890E+08 -6.607446E+07 -6.580009E+08
       385   4 -1.674343E+09 -2.911944E+09  1.872746E+08 -5.678170E+08 -3.548577E+06 -2.474913E+08
       385   5 -2.263348E+09 -4.199575E+09 -1.696680E+08 -6.009558E+08 -2.343922E+08 -5.607624E+08
       385   6 -2.858812E+09 -4.496696E+09 -5.747488E+08 -6.069533E+08 -2.490836E+08 -1.699905E+08
       385   7 -2.381876E+09 -4.345394E+09 -3.156969E+08 -8.315924E+08 -4.490461E+07 -6.035594E+08
       385   8 -2.973665E+09 -4.638802E+09 -7.205793E+08 -8.286802E+08  1.731956E+07 -1.930102E+08
       386   1 -1.049037E+09 -2.023594E+09 -3.299555E+08 -2.700171E+08 -3.512914E+08 -1.056872E+09
       386   2 -1.096685E+09 -2.083605E+09 -3.823120E+08 -3.738023E+08 -2.311033E+08 -1.100583E+09
       386   3 -1.307991E+09 -2.148295E+09 -4.912510E+08 -2.727426E+08 -3.624656E+08 -6.181915E+08
       386   4 -1.354075E+09 -2.206722E+09 -5.437307E+08 -3.725184E+08 -1.648912E+08 -6.416136E+08
       386   5 -3.113530E+07 -2.922671E+08  4.948128E+08 -7.235086E+07 -3.577675E+08 -1.075395E+09
       386   6 -5.237413E+07 -3.168185E+08  4.610170E+08 -1.001600E+08 -2.375814E+08 -1.119145E+09
       386   7 -1.200335E+08 -3.451921E+08  4.060672E+08 -7.308116E+07 -3.689672E+08 -6.367123E+08
       386   8 -1.413041E+08 -3.697700E+08  3.711862E+08 -9.981600E+07 -1.713947E+08 -6.601723E+08
       387   1  3.113530E+07  2.922671E+08 -4.948128E+08  7.235086E+07 -3.577675E+08 -1.075395E+09
       387   2  5.237413E+07  3.168185E+08 -4.610170E+08  1.001600E+08 -2.375814E+08 -1.119145E+09
       387   3  1.200335E+08  3.451921E+08 -4.060672E+08  7.308116E+07 -3.689672E+08 -6.367123E+08
       387   4  1.413041E+08  3.697700E+08 -3.711862E+08  9.981600E+07 -1.713947E+08 -6.601723E+08
       387   5  1.049037E+09  2.023594E+09  3.299555E+08  2.700171E+08 -3.512914E+08 -1.056872E+09
       387   6  1.096685E+09  2.083605E+09  3.823120E+08  3.738023E+08 -2.311033E+08 -1.100583E+09
       387   7  1.307991E+09  2.148295E+09  4.912510E+08  2.727426E+08 -3.624656E+08 -6.181915E+08
       387   8  1.354075E+09  2.206722E+09  5.437307E+08  3.725184E+08 -1.648912E+08 -6.416136E+08
       388   1  1.149907E+09  2.573304E+09 -6.522454E+08  4.116564E+08 -2.555865E+08 -6.156744E+08
       388   2  1.243333E+09  2.685518E+09 -5.238289E+08  5.697890E+08 -6.607446E+07 -6.580009E+08
       388   3  1.583073E+09  2.801915E+09 -3.164070E+08  4.157932E+08 -2.699742E+08 -2.249240E+08
       388   4  1.674343E+09  2.911944E+09 -1.872746E+08  5.678170E+08 -3.548578E+06 -2.474913E+08
       388   5  2.263348E+09  4.199575E+09  1.696680E+08  6.009558E+08 -2.343922E+08 -5.607624E+08
       388   6  2.381876E+09  4.345394E+09  3.156969E+08  8.315924E+08 -4.490461E+07 -6.035594E+08
       388   7  2.858812E+09  4.496696E+09  5.747488E+08  6.069533E+08 -2.490836E+08 -1.699905E+08
       388   8  2.973665E+09  4.638802E+09  7.205793E+08  8.286802E+08  1.731956E+07 -1.930102E+08
       389   1 -7.716221E+08 -2.450324E+09  6.635621E+08 -8.867077E+08 -3.374136E+08 -6.494265E+08
       389   2 -1.202214E+09 -2.680320E+09  3.239904E+08 -8.714772E+08 -3.333310E+08 -1.969992E+08
       389   3 -9.081081E+08 -2.562070E+09  4.581859E+08 -1.040153E+09 -2.985489E+08 -7.298861E+08
       389   4 -1.336135E+09 -2.791788E+09  1.158257E+08 -1.019138E+09 -2.111869E+08 -2.319284E+08
       389   5 -1.642285E+09 -3.973675E+09 -5.464228E+07 -1.335237E+09 -2.959158E+08 -5.986662E+08
       389   6 -2.249970E+09 -4.272804E+09 -4.680813E+08 -1.324434E+09 -2.925138E+08 -1.461195E+08
       389   7 -1.838536E+09 -4.170092E+09 -3.033490E+08 -1.569923E+09 -2.571595E+08 -6.801687E+08
       389   8 -2.440182E+09 -4.465232E+09 -7.174216E+08 -1.550189E+09 -1.704693E+08 -1.820522E+08
       390   1 -7.843831E+08 -1.919918E+09 -2.660501E+08 -5.698450E+08 -5.595773E+08 -1.112774E+09
       390   2 -8.454613E+08 -1.954295E+09 -3.471213E+08 -6.674119E+08 -5.773036E+08 -1.253219E+09
       390   3 -1.035688E+09 -2.044184E+09 -4.258069E+08 -5.565549E+08 -5.545495E+08 -6.206700E+08
       390   4 -1.093188E+09 -2.076854E+09 -5.037314E+08 -6.504673E+08 -4.984146E+08 -7.398847E+08
       390   5  2.010035E+07 -2.841654E+08  4.660208E+08 -1.526895E+08 -5.757992E+08 -1.129256E+09
       390   6 -1.841065E+07 -3.155217E+08  3.926258E+08 -1.788325E+08 -5.933594E+08 -1.268101E+09
       390   7 -6.712258E+07 -3.373483E+08  3.768133E+08 -1.491284E+08 -5.697273E+08 -6.373352E+08
       390   8 -1.040154E+08 -3.675880E+08  3.058000E+08 -1.742922E+08 -5.134395E+08 -7.550099E+08
       391   1 -2.010035E+07  2.841654E+08 -4.660208E+08  1.526895E+08 -5.757992E+08 -1.129256E+09
       391   2  1.841065E+07  3.155217E+08 -3.926258E+08  1.788325E+08 -5.933594E+08 -1.268101E+09
       391   3  6.712258E+07  3.373483E+08 -3.768133E+08  1.491284E+08 -5.697273E+08 -6.373352E+08
       391   4  1.040154E+08  3.675880E+08 -3.058000E+08  1.742922E+08 -5.134395E+08 -7.550099E+08
       391   5  7.843831E+08  1.919918E+09  2.660500E+08  5.698450E+08 -5.595773E+08 -1.112774E+09
       391   6  8.454613E+08  1.954295E+09  3.471213E+08  6.674119E+08 -5.773036E+08 -1.253219E+09
       391   7  1.035688E+09  2.044184E+09  4.258069E+08  5.565549E+08 -5.545495E+08 -6.206700E+08
       391   8  1.093188E+09  2.076854E+09  5.037314E+08  6.504673E+08 -4.984146E+08 -7.398847E+08
       392   1  7.716221E+08  2.450324E+09 -6.635621E+08  8.867077E+08 -3.374136E+08 -6.494265E+08
       392   2  9.081081E+08  2.562070E+09 -4.581859E+08  1.040153E+09 -2.985489E+08 -7.298861E+08
       392   3  1.202214E+09  2.680320E+09 -3.239904E+08  8.714772E+08 -3.333310E+08 -1.969992E+08
       392   4  1.336135E+09  2.791788E+09 -1.158257E+08  1.019138E+09 -2.111869E+08 -2.319284E+08
       392   5  1.642285E+09  3.973675E+09  5.464228E+07  1.335237E+09 -2.959158E+08 -5.986662E+08
       392   6  1.838536E+09  4.170092E+09  3.033490E+08  1.569923E+09 -2.571595E+08 -6.801687E+08
       392   7  2.249970E+09  4.272804E+09  4.680813E+08  1.324434E+09 -2.925138E+08 -1.461195E+08
       392   8  2.440182E+09  4.465232E+09  7.174216E+08  1.550189E+09 -1.704693E+08 -1.820522E+08
       393   1 -3.878436E+08 -2.320241E+09  5.634350E+08 -1.028694E+09 -3.300670E+08 -8.562472E+08
       393   2 -7.028433E+08 -2.584878E+09  2.410075E+08 -9.131188E+08 -2.940902E+08 -3.091358E+08
       393   3 -3.234291E+08 -1.927372E+09  4.944495E+08 -1.085502E+09 -4.951343E+08 -1.106956E+09
       393   4 -6.465789E+08 -2.213138E+09  1.573186E+08 -9.688939E+08 -4.016095E+08 -5.440155E+08
       393   5 -9.992142E+08 -3.794512E+09 -6.225749E+07 -1.634770E+09 -2.656647E+08 -8.134390E+08
       393   6 -1.439695E+09 -4.121011E+09 -4.408881E+08 -1.499391E+09 -2.306761E+08 -2.660502E+08
       393   7 -9.405964E+08 -3.360711E+09 -1.207025E+08 -1.741421E+09 -4.309650E+08 -1.065638E+09
       393   8 -1.387784E+09 -3.709292E+09 -5.138891E+08 -1.603308E+09 -3.384099E+08 -5.023658E+08
       394   1 -4.980578E+08 -1.772994E+09 -2.352240E+08 -6.363466E+08 -6.506408E+08 -1.463136E+09
       394   2 -3.951527E+08 -1.424534E+09 -1.750048E+08 -6.667608E+08 -8.432252E+08 -1.889918E+09
       394   3 -6.700932E+08 -1.923675E+09 -3.795516E+08 -5.509119E+08 -6.337191E+08 -9.370844E+08
       394   4 -5.753736E+08 -1.592945E+09 -3.340998E+08 -5.810030E+08 -7.866387E+08 -1.423699E+09
       394   5  5.494676E+07 -2.866713E+08  3.765742E+08 -1.705086E+08 -6.737193E+08 -1.476134E+09
       394   6  5.076445E+07 -2.250574E+08  3.186133E+08 -1.786580E+08 -8.665168E+08 -1.904278E+09
       394   7 -1.121632E+07 -3.471125E+08  2.910802E+08 -1.476164E+08 -6.577011E+08 -9.498283E+08
       394   8 -2.054529E+07 -2.932026E+08  2.222713E+08 -1.556793E+08 -8.108168E+08 -1.437756E+09
       395   1 -5.494676E+07  2.866713E+08 -3.765742E+08  1.705086E+08 -6.737193E+08 -1.476134E+09
       395   2 -5.076445E+07  2.250574E+08 -3.186133E+08  1.786580E+08 -8.665168E+08 -1.904278E+09
       395   3  1.121632E+07  3.471125E+08 -2.910802E+08  1.476164E+08 -6.577011E+08 -9.498284E+08
       395   4  2.054529E+07  2.932026E+08 -2.222713E+08  1.556793E+08 -8.108168E+08 -1.437756E+09
       395   5  4.980578E+08  1.772994E+09  2.352240E+08  6.363466E+08 -6.506408E+08 -1.463136E+09
       395   6  3.951527E+08  1.424534E+09  1.750048E+08  6.667608E+08 -8.432252E+08 -1.889918E+09
       395   7  6.700932E+08  1.923675E+09  3.795516E+08  5.509119E+08 -6.337191E+08 -9.370844E+08
       395   8  5.753736E+08  1.592945E+09  3.340998E+08  5.810030E+08 -7.866387E+08 -1.423699E+09
       396   1  3.878436E+08  2.320241E+09 -5.634350E+08  1.028694E+09 -3.300670E+08 -8.562472E+08
       396   2  3.234291E+08  1.927372E+09 -4.944495E+08  1.085502E+09 -4.951343E+08 -1.106956E+09
       396   3  7.028433E+08  2.584878E+09 -2.410075E+08  9.131188E+08 -2.940902E+08 -3.091358E+08
       396   4  6.465789E+08  2.213138E+09 -1.573186E+08  9.688939E+08 -4.016095E+08 -5.440155E+08
       396   5  9.992142E+08  3.794512E+09  6.225749E+07  1.634770E+09 -2.656647E+08 -8.134390E+08
       396   6  9.405964E+08  3.360711E+09  1.207025E+08  1.741421E+09 -4.309650E+08 -1.065638E+09
       396   7  1.439695E+09  4.121011E+09  4.408881E+08  1.499391E+09 -2.306761E+08 -2.660502E+08
       396   8  1.387784E+09  3.709292E+09  5.138891E+08  1.603308E+09 -3.384099E+08 -5.023658E+08
       397   1 -5.100745E+08 -1.613086E+09  4.971045E+08  9.346881E+08  4.025430E+08 -7.556316E+08
       397   2 -4.524290E+08 -1.206284E+09  4.190991E+08  1.019709E+09  4.960864E+08 -1.218412E+09
       397   3 -8.450748E+08 -1.869340E+09  2.205277E+08  8.167167E+08  4.080959E+08 -3.385234E+08
       397   4 -7.969441E+08 -1.484933E+09  1.231530E+08  8.998428E+08  4.189113E+08 -7.683225E+08
       397   5 -1.137928E+09 -2.629188E+09  3.917802E+06  1.556729E+09  3.421359E+08 -7.320615E+08
       397   6 -1.115801E+09 -2.235180E+09 -8.858159E+07  1.713748E+09  4.356261E+08 -1.194477E+09
       397   7 -1.630362E+09 -2.953342E+09 -3.402591E+08  1.425515E+09  3.474613E+08 -3.150177E+08
       397   8 -1.615087E+09 -2.580668E+09 -4.510107E+08  1.578252E+09  3.582274E+08 -7.444638E+08
       398   1 -5.248052E+08 -1.282645E+09 -1.743668E+08  5.575976E+08  7.539917E+08 -1.389143E+09
       398   2 -7.178175E+08 -1.439399E+09 -3.129055E+08  4.683792E+08  7.755345E+08 -9.893860E+08
       398   3 -4.202089E+08 -9.092378E+08 -1.176519E+08  6.038669E+08  9.091859E+08 -2.168121E+09
       398   4 -6.206181E+08 -1.083084E+09 -2.697455E+08  5.138439E+08  8.749557E+08 -1.836440E+09
       398   5  1.474322E+07 -1.883192E+08  3.157954E+08  1.494078E+08  7.777432E+08 -1.396199E+09
       398   6 -5.116854E+07 -2.445156E+08  2.455541E+08  1.255018E+08  7.999494E+08 -9.962539E+08
       398   7  6.158977E+06 -1.248759E+08  2.455670E+08  1.618056E+08  9.330927E+08 -2.176242E+09
       398   8 -6.435674E+07 -1.882740E+08  1.655758E+08  1.376841E+08  8.995144E+08 -1.844338E+09
       399   1 -1.474322E+07  1.883192E+08 -3.157954E+08 -1.494078E+08  7.777432E+08 -1.396199E+09
       399   2  5.116854E+07  2.445156E+08 -2.455541E+08 -1.255018E+08  7.999494E+08 -9.962539E+08
       399   3 -6.158977E+06  1.248759E+08 -2.455670E+08 -1.618056E+08  9.330927E+08 -2.176242E+09
       399   4  6.435674E+07  1.882740E+08 -1.655758E+08 -1.376841E+08  8.995144E+08 -1.844338E+09
       399   5  5.248052E+08  1.282645E+09  1.743668E+08 -5.575976E+08  7.539917E+08 -1.389143E+09
       399   6  7.178175E+08  1.439399E+09  3.129055E+08 -4.683792E+08  7.755345E+08 -9.893860E+08
       399   7  4.202089E+08  9.092378E+08  1.176519E+08 -6.038669E+08  9.091859E+08 -2.168121E+09
       399   8  6.206181E+08  1.083084E+09  2.697455E+08 -5.138439E+08  8.749557E+08 -1.836440E+09
       400   1  5.100745E+08  1.613086E+09 -4.971045E+08 -9.346881E+08  4.025430E+08 -7.556316E+08
       400   2  8.450748E+08  1.869340E+09 -2.205277E+08 -8.167167E+08  4.080959E+08 -3.385234E+08
       400   3  4.524290E+08  1.206284E+09 -4.190991E+08 -1.019709E+09  4.960864E+08 -1.218412E+09
       400   4  7.969441E+08  1.484933E+09 -1.231530E+08 -8.998428E+08  4.189113E+08 -7.683225E+08
       400   5  1.137928E+09  2.629188E+09 -3.917801E+06 -1.556729E+09  3.421359E+08 -7.320615E+08
       400   6  1.630362E+09  2.953342E+09  3.402591E+08 -1.425515E+09  3.474613E+08 -3.150177E+08
       400   7  1.115801E+09  2.235180E+09  8.858159E+07 -1.713748E+09  4.356261E+08 -1.194477E+09
       400   8  1.615087E+09  2.580668E+09  4.510107E+08 -1.578252E+09  3.582274E+08 -7.444638E+08
       401   1 -1.194599E+09 -1.781186E+09  3.702779E+08  1.099918E+09  2.131424E+08 -5.954906E+08
       401   2 -1.654988E+09 -2.008440E+09  6.713633E+07  1.075061E+09  1.201907E+08 -2.490748E+08
       401   3 -1.044944E+09 -1.658866E+09  5.868593E+08  9.080533E+08  3.921998E+08 -4.685712E+08
       401   4 -1.512347E+09 -1.890713E+09  2.768628E+08  8.898768E+08  4.066461E+08 -1.619445E+08
       401   5 -2.199509E+09 -2.916572E+09 -2.718107E+08  1.668460E+09  1.752081E+08 -5.648459E+08
       401   6 -2.865962E+09 -3.227127E+09 -6.617618E+08  1.636643E+09  8.444220E+07 -2.179065E+08
       401   7 -1.998467E+09 -2.737665E+09 -2.283740E+07  1.376934E+09  3.539172E+08 -4.343158E+08
       401   8 -2.675044E+09 -3.055346E+09 -4.213366E+08  1.355306E+09  3.705754E+08 -1.272908E+08
       402   1 -9.856488E+08 -1.410610E+09 -3.009936E+08  7.033542E+08  5.033749E+08 -1.080402E+09
       402   2 -9.150505E+08 -1.363072E+09 -2.155928E+08  5.808047E+08  6.092765E+08 -8.552441E+08
       402   3 -1.263621E+09 -1.540153E+09 -4.551887E+08  6.857586E+08  4.110289E+08 -7.092702E+08
       402   4 -1.197074E+09 -1.494924E+09 -3.733470E+08  5.674660E+08  6.132232E+08 -5.089909E+08
       402   5 -8.761588E+07 -2.014839E+08  3.311541E+08  1.884632E+08  5.172636E+08 -1.090178E+09
       402   6 -4.759927E+07 -1.676462E+08  4.032702E+08  1.556262E+08  6.233088E+08 -8.665093E+08
       402   7 -1.755880E+08 -2.496846E+08  2.583616E+08  1.837485E+08  4.240164E+08 -7.192626E+08
       402   8 -1.373542E+08 -2.171627E+08  3.278974E+08  1.520521E+08  6.263435E+08 -5.204202E+08
       403   1  8.761588E+07  2.014839E+08 -3.311541E+08 -1.884632E+08  5.172636E+08 -1.090178E+09
       403   2  4.759927E+07  1.676462E+08 -4.032702E+08 -1.556262E+08  6.233088E+08 -8.665093E+08
       403   3  1.755880E+08  2.496846E+08 -2.583616E+08 -1.837485E+08  4.240164E+08 -7.192626E+08
       403   4  1.373542E+08  2.171627E+08 -3.278974E+08 -1.520521E+08  6.263435E+08 -5.204202E+08
       403   5  9.856488E+08  1.410610E+09  3.009936E+08 -7.033542E+08  5.033749E+08 -1.080402E+09
       403   6  9.150504E+08  1.363072E+09  2.155928E+08 -5.808047E+08  6.092765E+08 -8.552441E+08
       403   7  1.263621E+09  1.540153E+09  4.551887E+08 -6.857586E+08  4.110289E+08 -7.092702E+08
       403   8  1.197074E+09  1.494924E+09  3.733470E+08 -5.674660E+08  6.132232E+08 -5.089909E+08
       404   1  1.194599E+09  1.781186E+09 -3.702779E+08 -1.099918E+09  2.131424E+08 -5.954906E+08
       404   2  1.044944E+09  1.658866E+09 -5.868593E+08 -9.080533E+08  3.921998E+08 -4.685712E+08
       404   3  1.654988E+09  2.008440E+09 -6.713634E+07 -1.075061E+09  1.201907E+08 -2.490748E+08
       404   4  1.512347E+09  1.890713E+09 -2.768628E+08 -8.898768E+08  4.066461E+08 -1.619445E+08
       404   5  2.199509E+09  2.916572E+09  2.718107E+08 -1.668460E+09  1.752081E+08 -5.648459E+08
       404   6  1.998467E+09  2.737665E+09  2.283740E+07 -1.376934E+09  3.539172E+08 -4.343158E+08
       404   7  2.865962E+09  3.227127E+09  6.617618E+08 -1.636643E+09  8.444220E+07 -2.179065E+08
       404   8  2.675044E+09  3.055346E+09  4.213366E+08 -1.355306E+09  3.705754E+08 -1.272908E+08
       405   1 -1.489037E+09 -1.886405E+09  4.601507E+08  6.001025E+08 -1.908174E+07 -4.982407E+08
       405   2 -1.922525E+09 -2.105724E+09  1.619083E+08  5.860749E+08 -8.957279E+07 -2.347072E+08
       405   3 -1.417845E+09 -1.830356E+09  5.676401E+08  4.222966E+08  3.052509E+08 -4.518347E+08
       405   4 -1.855113E+09 -2.052241E+09  2.649142E+08  4.146169E+08  3.221488E+08 -1.984893E+08
       405   5 -2.672755E+09 -3.110209E+09 -2.621058E+08  8.687629E+08 -3.880087E+07 -4.588695E+08
       405   6 -3.271950E+09 -3.401152E+09 -6.315476E+08  8.467311E+08 -1.079397E+08 -1.951515E+08
       405   7 -2.592295E+09 -3.057591E+09 -1.528653E+08  6.125837E+08  2.854242E+08 -4.102171E+08
       405   8 -3.196120E+09 -3.351201E+09 -5.270760E+08  5.996921E+08  3.036825E+08 -1.567675E+08
       406   1 -1.217799E+09 -1.519622E+09 -3.272599E+08  3.957303E+08  1.369925E+08 -8.510782E+08
       406   2 -1.183516E+09 -1.493616E+09 -2.877644E+08  2.781236E+08  3.944999E+08 -8.062368E+08
       406   3 -1.485184E+09 -1.645255E+09 -4.797122E+08  3.869777E+08  5.412005E+07 -5.436931E+08
       406   4 -1.453016E+09 -1.620624E+09 -4.422240E+08  2.735714E+08  4.036522E+08 -5.126184E+08
       406   5 -1.176880E+08 -1.985612E+08  3.990917E+08  1.060356E+08  1.431398E+08 -8.644299E+08
       406   6 -9.946022E+07 -1.825511E+08  4.307717E+08  7.452301E+07  4.006838E+08 -8.203530E+08
       406   7 -2.039239E+08 -2.468150E+08  3.241978E+08  1.036904E+08  5.980714E+07 -5.571076E+08
       406   8 -1.866685E+08 -2.315788E+08  3.543937E+08  7.330325E+07  4.093732E+08 -5.267701E+08
       407   1  1.176880E+08  1.985612E+08 -3.990917E+08 -1.060356E+08  1.431398E+08 -8.644299E+08
       407   2  9.946022E+07  1.825511E+08 -4.307717E+08 -7.452301E+07  4.006838E+08 -8.203530E+08
       407   3  2.039239E+08  2.468150E+08 -3.241978E+08 -1.036904E+08  5.980714E+07 -5.571076E+08
       407   4  1.866685E+08  2.315788E+08 -3.543937E+08 -7.330325E+07  4.093732E+08 -5.267701E+08
       407   5  1.217799E+09  1.519622E+09  3.272599E+08 -3.957303E+08  1.369925E+08 -8.510782E+08
       407   6  1.183516E+09  1.493616E+09  2.877644E+08 -2.781236E+08  3.944999E+08 -8.062368E+08
       407   7  1.485184E+09  1.645255E+09  4.797122E+08 -3.869777E+08  5.412005E+07 -5.436931E+08
       407   8  1.453016E+09  1.620624E+09  4.422240E+08 -2.735714E+08  4.036522E+08 -5.126184E+08
       408   1  1.489037E+09  1.886405E+09 -4.601507E+08 -6.001025E+08 -1.908174E+07 -4.982407E+08
       408   2  1.417845E+09  1.830356E+09 -5.676401E+08 -4.222966E+08  3.052509E+08 -4.518347E+08
       408   3  1.922525E+09  2.105724E+09 -1.619083E+08 -5.860749E+08 -8.957279E+07 -2.347072E+08
       408   4  1.855113E+09  2.052241E+09 -2.649142E+08 -4.146169E+08  3.221488E+08 -1.984893E+08
       408   5  2.672755E+09  3.110209E+09  2.621058E+08 -8.687629E+08 -3.880087E+07 -4.588695E+08
       408   6  2.592295E+09  3.057591E+09  1.528653E+08 -6.125837E+08  2.854242E+08 -4.102171E+08
       408   7  3.271950E+09  3.401152E+09  6.315477E+08 -8.467311E+08 -1.079397E+08 -1.951515E+08
       408   8  3.196120E+09  3.351201E+09  5.270760E+08 -5.996921E+08  3.036825E+08 -1.567675E+08
       409   1 -1.550253E+09 -1.912652E+09  5.287795E+08  7.724292E+07 -1.813373E+08 -4.745142E+08
       409   2 -1.921563E+09 -2.106702E+09  2.532524E+08  7.434453E+07 -2.173197E+08 -2.310542E+08
       409   3 -1.550049E+09 -1.912370E+09  5.294128E+08 -7.004605E+07  1.827810E+08 -4.732339E+08
       409   4 -1.921337E+09 -2.106407E+09  2.539111E+08 -6.762603E+07  2.189889E+08 -2.298879E+08
       409   5 -2.790373E+09 -3.187150E+09 -2.256060E+08  1.101777E+08 -1.814543E+08 -4.309896E+08
       409   6 -3.293440E+09 -3.437669E+09 -5.576007E+08  1.060340E+08 -2.174368E+08 -1.875295E+08
       409   7 -2.790239E+09 -3.186950E+09 -2.250181E+08 -9.967115E+07  1.826640E+08 -4.297094E+08
       409   8 -3.293277E+09 -3.437451E+09 -5.569838E+08 -9.623751E+07  2.188718E+08 -1.863634E+08
       410   1 -1.276056E+09 -1.551948E+09 -3.251316E+08  5.141212E+07 -1.491526E+08 -8.300325E+08
       410   2 -1.276006E+09 -1.551831E+09 -3.249221E+08 -4.669155E+07  1.517968E+08 -8.288135E+08
       410   3 -1.503354E+09 -1.661180E+09 -4.619426E+08  4.948574E+07 -1.882086E+08 -5.475829E+08
       410   4 -1.503285E+09 -1.661050E+09 -4.617051E+08 -4.507554E+07  1.912284E+08 -5.465067E+08
       410   5 -1.209221E+08 -1.948470E+08  4.285388E+08  1.377584E+07 -1.491144E+08 -8.447650E+08
       410   6 -1.208413E+08 -1.947485E+08  4.287520E+08 -1.251096E+07  1.518350E+08 -8.435404E+08
       410   7 -1.969681E+08 -2.392572E+08  3.565500E+08  1.325966E+07 -1.881670E+08 -5.623153E+08
       410   8 -1.968744E+08 -2.391475E+08  3.567889E+08 -1.207795E+07  1.912700E+08 -5.612336E+08
       411   1  1.209221E+08  1.948470E+08 -4.285388E+08 -1.377584E+07 -1.491144E+08 -8.447650E+08
       411   2  1.208413E+08  1.947485E+08 -4.287520E+08  1.251096E+07  1.518350E+08 -8.435404E+08
       411   3  1.969681E+08  2.392572E+08 -3.565500E+08 -1.325966E+07 -1.881670E+08 -5.623153E+08
       411   4  1.968744E+08  2.391475E+08 -3.567889E+08  1.207795E+07  1.912700E+08 -5.612336E+08
       411   5  1.276056E+09  1.551948E+09  3.251316E+08 -5.141212E+07 -1.491526E+08 -8.300325E+08
       411   6  1.276006E+09  1.551831E+09  3.249221E+08  4.669155E+07  1.517968E+08 -8.288135E+08
       411   7  1.503354E+09  1.661180E+09  4.619426E+08 -4.948574E+07 -1.882086E+08 -5.475829E+08
       411   8  1.503285E+09  1.661050E+09  4.617051E+08  4.507554E+07  1.912284E+08 -5.465067E+08
       412   1  1.550253E+09  1.912652E+09 -5.287795E+08 -7.724292E+07 -1.813373E+08 -4.745142E+08
       412   2  1.550049E+09  1.912370E+09 -5.294128E+08  7.004605E+07  1.827810E+08 -4.732339E+08
       412   3  1.921563E+09  2.106702E+09 -2.532524E+08 -7.434453E+07 -2.173197E+08 -2.310542E+08
       412   4  1.921337E+09  2.106407E+09 -2.539111E+08  6.762603E+07  2.189889E+08 -2.298879E+08
       412   5  2.790373E+09  3.187150E+09  2.256060E+08 -1.101777E+08 -1.814543E+08 -4.309896E+08
       412   6  2.790239E+09  3.186950E+09  2.250181E+08  9.967115E+07  1.826640E+08 -4.297094E+08
       412   7  3.293440E+09  3.437669E+09  5.576007E+08 -1.060340E+08 -2.174368E+08 -1.875295E+08
       412   8  3.293277E+09  3.437451E+09  5.569838E+08  9.623751E+07  2.188718E+08 -1.863634E+08
       413   1 -1.418771E+09 -1.833824E+09  5.674612E+08 -4.154429E+08 -3.041625E+08 -4.528583E+08
       413   2 -1.855989E+09 -2.055677E+09  2.648105E+08 -4.083509E+08 -3.209753E+08 -2.003821E+08
       413   3 -1.489702E+09 -1.889546E+09  4.609529E+08 -5.935205E+08  2.088925E+07 -4.969832E+08
       413   4 -1.923057E+09 -2.108772E+09  1.628975E+08 -5.800223E+08  9.166559E+07 -2.344920E+08
       413   5 -2.594025E+09 -3.063095E+09 -1.538962E+08 -6.024789E+08 -2.845547E+08 -4.111421E+08
       413   6 -3.197745E+09 -3.356631E+09 -5.280023E+08 -5.904060E+08 -3.027423E+08 -1.585679E+08
       413   7 -2.674232E+09 -3.115260E+09 -2.621200E+08 -8.590303E+08  4.038766E+07 -4.575407E+08
       413   8 -3.273223E+09 -3.406068E+09 -6.313410E+08 -8.377342E+08  1.097976E+08 -1.948698E+08
       414   1 -1.184323E+09 -1.496072E+09 -2.883802E+08 -2.736568E+08 -3.922598E+08 -8.073883E+08
       414   2 -1.218627E+09 -1.522086E+09 -3.276466E+08 -3.914488E+08 -1.341395E+08 -8.498650E+08
       414   3 -1.453807E+09 -1.623075E+09 -4.428068E+08 -2.695014E+08 -4.011735E+08 -5.146608E+08
       414   4 -1.485974E+09 -1.647705E+09 -4.800702E+08 -3.830542E+08 -5.082192E+07 -5.434774E+08
       414   5 -9.952307E+07 -1.830559E+08  4.309646E+08 -7.332612E+07 -3.983789E+08 -8.215305E+08
       414   6 -1.176561E+08 -1.989676E+08  3.995803E+08 -1.048884E+08 -1.402222E+08 -8.632481E+08
       414   7 -1.867158E+08 -2.320710E+08  3.546218E+08 -7.221268E+07 -4.068337E+08 -5.288356E+08
       414   8 -2.038763E+08 -2.472121E+08  3.247069E+08 -1.026391E+08 -5.644842E+07 -5.569206E+08
       415   1  9.952307E+07  1.830559E+08 -4.309646E+08  7.332612E+07 -3.983789E+08 -8.215305E+08
       415   2  1.176561E+08  1.989676E+08 -3.995803E+08  1.048884E+08 -1.402222E+08 -8.632481E+08
       415   3  1.867158E+08  2.320710E+08 -3.546218E+08  7.221268E+07 -4.068337E+08 -5.288356E+08
       415   4  2.038763E+08  2.472121E+08 -3.247069E+08  1.026391E+08 -5.644842E+07 -5.569206E+08
       415   5  1.184323E+09  1.496072E+09  2.883802E+08  2.736568E+08 -3.922598E+08 -8.073883E+08
       415   6  1.218627E+09  1.522086E+09  3.276466E+08  3.914488E+08 -1.341395E+08 -8.498650E+08
       415   7  1.453807E+09  1.623075E+09  4.428068E+08  2.695014E+08 -4.011735E+08 -5.146608E+08
       415   8  1.485974E+09  1.647705E+09  4.800702E+08  3.830542E+08 -5.082192E+07 -5.434775E+08
       416   1  1.418771E+09  1.833824E+09 -5.674612E+08  4.154429E+08 -3.041625E+08 -4.528583E+08
       416   2  1.489702E+09  1.889546E+09 -4.609529E+08  5.935205E+08  2.088925E+07 -4.969832E+08
       416   3  1.855989E+09  2.055677E+09 -2.648105E+08  4.083509E+08 -3.209753E+08 -2.003821E+08
       416   4  1.923057E+09  2.108772E+09 -1.628975E+08  5.800223E+08  9.166559E+07 -2.344920E+08
       416   5  2.594025E+09  3.063095E+09  1.538962E+08  6.024789E+08 -2.845547E+08 -4.111421E+08
       416   6  2.674232E+09  3.115260E+09  2.621200E+08  8.590303E+08  4.038766E+07 -4.575407E+08
       416   7  3.197745E+09  3.356631E+09  5.280023E+08  5.904060E+08 -3.027423E+08 -1.585679E+08
       416   8  3.273223E+09  3.406068E+09  6.313410E+08  8.377342E+08  1.097976E+08 -1.948698E+08
       417   1 -1.045635E+09 -1.663466E+09  5.876051E+08 -9.037016E+08 -3.917565E+08 -4.684915E+08
       417   2 -1.514120E+09 -1.895631E+09  2.772499E+08 -8.862856E+08 -4.065577E+08 -1.634945E+08
       417   3 -1.196163E+09 -1.787624E+09  3.704692E+08 -1.096799E+09 -2.115003E+08 -5.941901E+08
       417   4 -1.657652E+09 -2.015216E+09  6.673020E+07 -1.072553E+09 -1.182618E+08 -2.492583E+08
       417   5 -2.000378E+09 -2.745472E+09 -2.341979E+07 -1.369957E+09 -3.536368E+08 -4.340744E+08
       417   6 -2.678500E+09 -3.063837E+09 -4.225258E+08 -1.349172E+09 -3.706062E+08 -1.286963E+08
       417   7 -2.202043E+09 -2.925501E+09 -2.726577E+08 -1.663189E+09 -1.737221E+08 -5.633240E+08
       417   8 -2.870020E+09 -3.236746E+09 -6.634395E+08 -1.631997E+09 -8.262591E+07 -2.178859E+08
       418   1 -9.158537E+08 -1.366384E+09 -2.160444E+08 -5.781307E+08 -6.079300E+08 -8.549489E+08
       418   2 -9.871798E+08 -1.415546E+09 -3.018906E+08 -7.015152E+08 -5.010921E+08 -1.078139E+09
       418   3 -1.198622E+09 -1.498405E+09 -3.740664E+08 -5.653677E+08 -6.120784E+08 -5.100583E+08
       418   4 -1.265820E+09 -1.545178E+09 -4.563121E+08 -6.843982E+08 -4.082784E+08 -7.076975E+08
       418   5 -4.748378E+07 -1.682030E+08  4.039209E+08 -1.549097E+08 -6.218612E+08 -8.662874E+08
       418   6 -8.758561E+07 -2.023660E+08  3.319417E+08 -1.879704E+08 -5.148795E+08 -1.087982E+09
       418   7 -1.374356E+08 -2.177622E+08  3.284823E+08 -1.514898E+08 -6.250964E+08 -5.215574E+08
       418   8 -1.757365E+08 -2.505901E+08  2.590894E+08 -1.833839E+08 -4.211635E+08 -7.177536E+08
       419   1  4.748378E+07  1.682030E+08 -4.039209E+08  1.549097E+08 -6.218612E+08 -8.662874E+08
       419   2  8.758561E+07  2.023660E+08 -3.319417E+08  1.879704E+08 -5.148795E+08 -1.087982E+09
       419   3  1.374356E+08  2.177622E+08 -3.284823E+08  1.514898E+08 -6.250964E+08 -5.215574E+08
       419   4  1.757365E+08  2.505901E+08 -2.590894E+08  1.833839E+08 -4.211635E+08 -7.177536E+08
       419   5  9.158537E+08  1.366384E+09  2.160444E+08  5.781307E+08 -6.079300E+08 -8.549489E+08
       419   6  9.871798E+08  1.415546E+09  3.018906E+08  7.015152E+08 -5.010921E+08 -1.078139E+09
       419   7  1.198622E+09  1.498405E+09  3.740664E+08  5.653677E+08 -6.120784E+08 -5.100583E+08
       419   8  1.265820E+09  1.545178E+09  4.563121E+08  6.843982E+08 -4.082784E+08 -7.076975E+08
       420   1  1.045635E+09  1.663466E+09 -5.876051E+08  9.037016E+08 -3.917565E+08 -4.684915E+08
       420   2  1.196163E+09  1.787624E+09 -3.704692E+08  1.096799E+09 -2.115003E+08 -5.941901E+08
       420   3  1.514120E+09  1.895631E+09 -2.772499E+08  8.862855E+08 -4.065577E+08 -1.634945E+08
       420   4  1.657652E+09  2.015216E+09 -6.673020E+07  1.072553E+09 -1.182618E+08 -2.492583E+08
       420   5  2.000378E+09  2.745472E+09  2.341980E+07  1.369957E+09 -3.536368E+08 -4.340744E+08
       420   6  2.202043E+09  2.925501E+09  2.726577E+08  1.663189E+09 -1.737221E+08 -5.633240E+08
       420   7  2.678500E+09  3.063837E+09  4.225258E+08  1.349172E+09 -3.706062E+08 -1.286963E+08
       420   8  2.870020E+09  3.236746E+09  6.634395E+08  1.631997E+09 -8.262591E+07 -2.178859E+08
       421   1 -5.107911E+08 -1.615618E+09  4.986394E+08 -9.343068E+08 -4.028077E+08 -7.542013E+08
       421   2 -8.471672E+08 -1.871365E+09  2.215733E+08 -8.170204E+08 -4.094492E+08 -3.380580E+08
       421   3 -4.541580E+08 -1.210257E+09  4.194150E+08 -1.020958E+09 -4.950104E+08 -1.218061E+09
       421   4 -8.000975E+08 -1.488728E+09  1.229213E+08 -9.016566E+08 -4.181369E+08 -7.677384E+08
       421   5 -1.139145E+09 -2.632577E+09  5.045911E+06 -1.555805E+09 -3.425172E+08 -7.303749E+08
       421   6 -1.633488E+09 -2.956326E+09 -3.398113E+08 -1.425480E+09 -3.489976E+08 -3.142768E+08
       421   7 -1.118436E+09 -2.240874E+09 -8.905342E+07 -1.715135E+09 -4.346822E+08 -1.193975E+09
       421   8 -1.619619E+09 -2.586239E+09 -4.521886E+08 -1.580325E+09 -3.576505E+08 -7.437061E+08
       422   1 -5.257827E+08 -1.284952E+09 -1.743377E+08 -5.574535E+08 -7.538507E+08 -1.386822E+09
       422   2 -4.218428E+08 -9.124066E+08 -1.184163E+08 -6.048121E+08 -9.079496E+08 -2.167766E+09
       422   3 -7.196276E+08 -1.441177E+09 -3.129775E+08 -4.687166E+08 -7.762509E+08 -9.871983E+08
       422   4 -6.231800E+08 -1.086037E+09 -2.707583E+08 -5.151994E+08 -8.738087E+08 -1.835401E+09
       422   5  1.490976E+07 -1.885090E+08  3.168029E+08 -1.493692E+08 -7.775900E+08 -1.393936E+09
       422   6  6.006840E+06 -1.254393E+08  2.460288E+08 -1.620589E+08 -9.318394E+08 -2.175921E+09
       422   7 -5.122932E+07 -2.445678E+08  2.465246E+08 -1.255922E+08 -8.006347E+08 -9.941316E+08
       422   8 -6.477218E+07 -1.887943E+08  1.659368E+08 -1.380473E+08 -8.983317E+08 -1.843339E+09
       423   1 -1.490976E+07  1.885090E+08 -3.168029E+08  1.493692E+08 -7.775900E+08 -1.393936E+09
       423   2 -6.006840E+06  1.254393E+08 -2.460288E+08  1.620589E+08 -9.318394E+08 -2.175921E+09
       423   3  5.122932E+07  2.445678E+08 -2.465246E+08  1.255922E+08 -8.006347E+08 -9.941316E+08
       423   4  6.477218E+07  1.887943E+08 -1.659368E+08  1.380473E+08 -8.983317E+08 -1.843339E+09
       423   5  5.257827E+08  1.284952E+09  1.743377E+08  5.574535E+08 -7.538507E+08 -1.386822E+09
       423   6  4.218428E+08  9.124066E+08  1.184163E+08  6.048121E+08 -9.079496E+08 -2.167766E+09
       423   7  7.196276E+08  1.441177E+09  3.129775E+08  4.687166E+08 -7.762509E+08 -9.871983E+08
       423   8  6.231800E+08  1.086037E+09  2.707583E+08  5.151994E+08 -8.738087E+08 -1.835401E+09
       424   1  5.107911E+08  1.615618E+09 -4.986394E+08  9.343068E+08 -4.028077E+08 -7.542013E+08
       424   2  4.541580E+08  1.210257E+09 -4.194150E+08  1.020958E+09 -4.950104E+08 -1.218061E+09
       424   3  8.471672E+08  1.871365E+09 -2.215733E+08  8.170204E+08 -4.094492E+08 -3.380580E+08
       424   4  8.000975E+08  1.488728E+09 -1.229213E+08  9.016566E+08 -4.181369E+08 -7.677384E+08
       424   5  1.139145E+09  2.632577E+09 -5.045909E+06  1.555805E+09 -3.425172E+08 -7.303749E+08
       424   6  1.118436E+09  2.240874E+09  8.905342E+07  1.715135E+09 -4.346822E+08 -1.193975E+09
       424   7  1.633488E+09  2.956326E+09  3.398113E+08  1.425480E+09 -3.489976E+08 -3.142768E+08
       424   8  1.619619E+09  2.586239E+09  4.521886E+08  1.580325E+09 -3.576505E+08 -7.437061E+08
       425   1 -7.286685E+08 -9.306403E+08  4.829132E+08  9.298624E+08  5.149542E+08 -6.236895E+08
       425   2 -7.529575E+08 -6.886168E+08  3.583712E+08  1.083892E+09  5.002036E+08 -1.398685E+09
       425   3 -1.130129E+09 -1.170889E+09  2.416701E+08  8.373985E+08  5.885374E+08 -3.328899E+08
       425   4 -1.089628E+09 -8.742238E+08  2.645881E+08  9.871473E+08  4.474396E+08 -1.071061E+09
       425   5 -1.436570E+09 -1.475020E+09  1.072290E+08  1.602064E+09  4.673882E+08 -6.171666E+08
       425   6 -1.505564E+09 -1.239086E+09 -3.255148E+07  1.864199E+09  4.589262E+08 -1.438569E+09
       425   7 -2.061786E+09 -1.813326E+09 -2.305583E+08  1.488933E+09  5.681200E+08 -3.186879E+08
       425   8 -2.062603E+09 -1.521711E+09 -2.215507E+08  1.743404E+09  4.328714E+08 -1.101803E+09
       426   1 -6.275883E+08 -8.340832E+08 -1.109588E+08  5.393113E+08  8.798388E+08 -1.266969E+09
       426   2 -8.486419E+08 -9.642784E+08 -2.010751E+08  4.723535E+08  9.367265E+08 -9.770361E+08
       426   3 -5.818629E+08 -5.894711E+08 -8.350529E+07  6.295835E+08  9.729675E+08 -2.491489E+09
       426   4 -7.476037E+08 -6.716804E+08 -4.559225E+07  5.602261E+08  9.412279E+08 -2.239309E+09
       426   5 -2.982841E+07 -8.515855E+07  2.930465E+08  1.445080E+08  8.931468E+08 -1.256950E+09
       426   6 -8.261536E+07 -1.136001E+08  2.839364E+08  1.265667E+08  9.273811E+08 -9.734243E+08
       426   7 -4.276777E+07 -4.480637E+07  2.416227E+08  1.686964E+08  9.810282E+08 -2.442747E+09
       426   8 -3.975024E+07 -1.940666E+07  3.624459E+08  1.501121E+08  9.270018E+08 -2.198195E+09
       427   1  2.982841E+07  8.515855E+07 -2.930465E+08 -1.445080E+08  8.931468E+08 -1.256950E+09
       427   2  8.261536E+07  1.136001E+08 -2.839364E+08 -1.265667E+08  9.273811E+08 -9.734243E+08
       427   3  4.276776E+07  4.480637E+07 -2.416227E+08 -1.686964E+08  9.810282E+08 -2.442747E+09
       427   4  3.975024E+07  1.940666E+07 -3.624459E+08 -1.501121E+08  9.270018E+08 -2.198195E+09
       427   5  6.275883E+08  8.340832E+08  1.109588E+08 -5.393113E+08  8.798388E+08 -1.266969E+09
       427   6  8.486419E+08  9.642784E+08  2.010751E+08 -4.723535E+08  9.367265E+08 -9.770361E+08
       427   7  5.818629E+08  5.894711E+08  8.350529E+07 -6.295835E+08  9.729675E+08 -2.491489E+09
       427   8  7.476037E+08  6.716804E+08  4.559225E+07 -5.602261E+08  9.412279E+08 -2.239309E+09
       428   1  7.286685E+08  9.306403E+08 -4.829132E+08 -9.298624E+08  5.149542E+08 -6.236895E+08
       428   2  1.130129E+09  1.170888E+09 -2.416701E+08 -8.373985E+08  5.885374E+08 -3.328899E+08
       428   3  7.529575E+08  6.886168E+08 -3.583712E+08 -1.083892E+09  5.002036E+08 -1.398685E+09
       428   4  1.089628E+09  8.742238E+08 -2.645881E+08 -9.871473E+08  4.474396E+08 -1.071061E+09
       428   5  1.436570E+09  1.475020E+09 -1.072290E+08 -1.602064E+09  4.673882E+08 -6.171666E+08
       428   6  2.061786E+09  1.813326E+09  2.305583E+08 -1.488933E+09  5.681200E+08 -3.186879E+08
       428   7  1.505564E+09  1.239086E+09  3.255148E+07 -1.864199E+09  4.589262E+08 -1.438569E+09
       428   8  2.062603E+09  1.521711E+09  2.215507E+08 -1.743404E+09  4.328714E+08 -1.101803E+09
       429   1 -1.608054E+09 -1.022071E+09  3.124052E+08  1.179062E+09  7.062350E+07 -4.363116E+08
       429   2 -2.284627E+09 -1.343880E+09 -6.708417E+07  1.128136E+09 -6.774165E+07 -2.501618E+08
       429   3 -1.449593E+09 -9.482326E+08  5.220921E+08  8.655869E+08  4.487621E+08 -2.886083E+08
       429   4 -2.117312E+09 -1.256267E+09  1.756610E+08  8.248936E+08  4.741404E+08 -1.240673E+08
       429   5 -2.770403E+09 -1.729790E+09 -2.486152E+08  1.777934E+09  3.440340E+07 -4.121695E+08
       429   6 -3.749115E+09 -2.184008E+09 -7.584690E+08  1.702184E+09 -1.087844E+08 -2.271737E+08
       429   7 -2.575857E+09 -1.661911E+09 -2.989052E+07  1.314369E+09  4.133014E+08 -2.729316E+08
       429   8 -3.548697E+09 -2.102929E+09 -5.077530E+08  1.253748E+09  4.338033E+08 -1.092670E+08
       430   1 -1.222269E+09 -8.913599E+08 -2.673446E+08  7.570172E+08  3.569488E+08 -8.713128E+08
       430   2 -1.144034E+09 -8.677276E+08 -1.893314E+08  5.531147E+08  6.449305E+08 -5.993558E+08
       430   3 -1.644091E+09 -1.082385E+09 -4.717111E+08  7.240190E+08  2.065534E+08 -6.524292E+08
       430   4 -1.570363E+09 -1.060073E+09 -3.961343E+08  5.267734E+08  6.544059E+08 -3.990751E+08
       430   5 -1.726165E+08 -8.394953E+07  2.897744E+08  2.028421E+08  3.689883E+08 -8.768470E+08
       430   6 -1.316123E+08 -5.757613E+07  3.574406E+08  1.482066E+08  6.570588E+08 -6.058806E+08
       430   7 -2.943065E+08 -1.437977E+08  2.148005E+08  1.940003E+08  2.180286E+08 -6.580984E+08
       430   8 -2.548005E+08 -1.180688E+08  2.811357E+08  1.411485E+08  6.659636E+08 -4.057024E+08
       431   1  1.726165E+08  8.394953E+07 -2.897744E+08 -2.028421E+08  3.689883E+08 -8.768470E+08
       431   2  1.316123E+08  5.757613E+07 -3.574406E+08 -1.482066E+08  6.570588E+08 -6.058806E+08
       431   3  2.943065E+08  1.437977E+08 -2.148005E+08 -1.940003E+08  2.180286E+08 -6.580984E+08
       431   4  2.548005E+08  1.180688E+08 -2.811357E+08 -1.411485E+08  6.659636E+08 -4.057024E+08
       431   5  1.222269E+09  8.913599E+08  2.673446E+08 -7.570172E+08  3.569488E+08 -8.713128E+08
       431   6  1.144034E+09  8.677276E+08  1.893314E+08 -5.531147E+08  6.449305E+08 -5.993558E+08
       431   7  1.644091E+09  1.082385E+09  4.717111E+08 -7.240190E+08  2.065534E+08 -6.524292E+08
       431   8  1.570363E+09  1.060073E+09  3.961343E+08 -5.267734E+08  6.544059E+08 -3.990751E+08
       432   1  1.608054E+09  1.022071E+09 -3.124052E+08 -1.179062E+09  7.062350E+07 -4.363116E+08
       432   2  1.449593E+09  9.482326E+08 -5.220921E+08 -8.655869E+08  4.487621E+08 -2.886083E+08
       432   3  2.284627E+09  1.343880E+09  6.708417E+07 -1.128136E+09 -6.774165E+07 -2.501618E+08
       432   4  2.117312E+09  1.256267E+09 -1.756610E+08 -8.248936E+08  4.741404E+08 -1.240673E+08
       432   5  2.770403E+09  1.729790E+09  2.486152E+08 -1.777934E+09  3.440340E+07 -4.121695E+08
       432   6  2.575857E+09  1.661911E+09  2.989052E+07 -1.314369E+09  4.133014E+08 -2.729316E+08
       432   7  3.749115E+09  2.184008E+09  7.584690E+08 -1.702184E+09 -1.087844E+08 -2.271737E+08
       432   8  3.548697E+09  2.102929E+09  5.077530E+08 -1.253748E+09  4.338033E+08 -1.092670E+08
       433   1 -1.737415E+09 -1.159827E+09  4.438590E+08  5.365361E+08 -1.285618E+08 -3.595280E+08
       433   2 -2.083117E+09 -1.332798E+09  2.339701E+08  5.066625E+08 -1.972889E+08 -2.296728E+08
       433   3 -1.728009E+09 -1.227202E+09  4.820639E+08  3.812452E+08  3.445436E+08 -3.209390E+08
       433   4 -2.089942E+09 -1.413297E+09  2.355079E+08  3.565407E+08  3.566066E+08 -1.848119E+08
       433   5 -2.983890E+09 -2.012210E+09 -1.857986E+08  7.688001E+08 -1.429011E+08 -3.391801E+08
       433   6 -3.464576E+09 -2.247138E+09 -4.547696E+08  7.231994E+08 -2.046743E+08 -2.083790E+08
       433   7 -2.992004E+09 -2.140365E+09 -1.710837E+08  5.473641E+08  3.296573E+08 -2.883188E+08
       433   8 -3.488725E+09 -2.386541E+09 -4.761005E+08  5.091252E+08  3.487132E+08 -1.516584E+08
       434   1 -1.355034E+09 -1.013269E+09 -2.722500E+08  3.561038E+08  3.035110E+06 -6.309702E+08
       434   2 -1.357334E+09 -1.063636E+09 -2.698147E+08  2.527242E+08  4.183247E+08 -6.048061E+08
       434   3 -1.577464E+09 -1.120551E+09 -3.944779E+08  3.370834E+08 -8.514700E+07 -4.665985E+08
       434   4 -1.582879E+09 -1.172068E+09 -3.984078E+08  2.371474E+08  4.177053E+08 -4.385165E+08
       434   5 -1.779949E+08 -8.641928E+07  3.589165E+08  9.541773E+07  7.838657E+06 -6.398932E+08
       434   6 -1.709097E+08 -9.221365E+07  3.775393E+08  6.771725E+07  4.232340E+08 -6.161016E+08
       434   7 -2.474412E+08 -1.250120E+08  3.031907E+08  9.032121E+07 -8.168787E+07 -4.757043E+08
       434   8 -2.433387E+08 -1.332622E+08  3.150959E+08  6.354346E+07  4.212627E+08 -4.499151E+08
       435   1  1.779949E+08  8.641928E+07 -3.589165E+08 -9.541773E+07  7.838657E+06 -6.398932E+08
       435   2  1.709097E+08  9.221365E+07 -3.775392E+08 -6.771725E+07  4.232340E+08 -6.161016E+08
       435   3  2.474412E+08  1.250120E+08 -3.031907E+08 -9.032121E+07 -8.168787E+07 -4.757043E+08
       435   4  2.433387E+08  1.332622E+08 -3.150959E+08 -6.354346E+07  4.212627E+08 -4.499151E+08
       435   5  1.355034E+09  1.013269E+09  2.722500E+08 -3.561038E+08  3.035110E+06 -6.309702E+08
       435   6  1.357334E+09  1.063636E+09  2.698147E+08 -2.527242E+08  4.183247E+08 -6.048061E+08
       435   7  1.577464E+09  1.120551E+09  3.944779E+08 -3.370834E+08 -8.514700E+07 -4.665985E+08
       435   8  1.582879E+09  1.172068E+09  3.984078E+08 -2.371474E+08  4.177053E+08 -4.385165E+08
       436   1  1.737415E+09  1.159827E+09 -4.438590E+08 -5.365361E+08 -1.285618E+08 -3.595280E+08
       436   2  1.728009E+09  1.227202E+09 -4.820639E+08 -3.812452E+08  3.445436E+08 -3.209390E+08
       436   3  2.083117E+09  1.332798E+09 -2.339701E+08 -5.066625E+08 -1.972889E+08 -2.296728E+08
       436   4  2.089942E+09  1.413297E+09 -2.355079E+08 -3.565407E+08  3.566066E+08 -1.848119E+08
       436   5  2.983890E+09  2.012210E+09  1.857986E+08 -7.688001E+08 -1.429011E+08 -3.391801E+08
       436   6  2.992004E+09  2.140365E+09  1.710837E+08 -5.473641E+08  3.296573E+08 -2.883188E+08
       436   7  3.464576E+09  2.247138E+09  4.547696E+08 -7.231994E+08 -2.046743E+08 -2.083790E+08
       436   8  3.488725E+09  2.386541E+09  4.761005E+08 -5.091252E+08  3.487132E+08 -1.516584E+08
       437   1 -1.771967E+09 -1.304357E+09  4.662539E+08  6.985407E+07 -2.429758E+08 -3.571531E+08
       437   2 -2.087481E+09 -1.470041E+09  2.295188E+08  6.732180E+07 -2.769686E+08 -2.242216E+08
       437   3 -1.772037E+09 -1.304756E+09  4.665905E+08 -6.243633E+07  2.446022E+08 -3.559310E+08
       437   4 -2.087578E+09 -1.470461E+09  2.297570E+08 -6.047435E+07  2.784897E+08 -2.230290E+08
       437   5 -3.053829E+09 -2.259339E+09 -2.047994E+08  9.858246E+07 -2.430852E+08 -3.191933E+08
       437   6 -3.476795E+09 -2.471079E+09 -4.875867E+08  9.499697E+07 -2.770553E+08 -1.862611E+08
       437   7 -3.054082E+09 -2.260110E+09 -2.046293E+08 -8.791684E+07  2.444928E+08 -3.179313E+08
       437   8 -3.477065E+09 -2.471857E+09 -4.875078E+08 -8.516646E+07  2.784030E+08 -1.850299E+08
       438   1 -1.392296E+09 -1.117866E+09 -2.898349E+08  4.679900E+07 -2.165079E+08 -6.460196E+08
       438   2 -1.392417E+09 -1.118191E+09 -2.897966E+08 -4.188639E+07  2.195097E+08 -6.449280E+08
       438   3 -1.585550E+09 -1.210676E+09 -4.059284E+08  4.510590E+07 -2.546488E+08 -4.843602E+08
       438   4 -1.585677E+09 -1.211004E+09 -4.059273E+08 -4.056662E+07  2.574624E+08 -4.833174E+08
       438   5 -1.774323E+08 -1.038990E+08  3.788144E+08  1.253975E+07 -2.164683E+08 -6.584601E+08
       438   6 -1.773920E+08 -1.039135E+08  3.789941E+08 -1.122342E+07  2.195493E+08 -6.573846E+08
       438   7 -2.420005E+08 -1.415533E+08  3.178734E+08  1.208609E+07 -2.546184E+08 -4.968009E+08
       438   8 -2.419765E+08 -1.415831E+08  3.180091E+08 -1.086979E+07  2.574928E+08 -4.957738E+08
       439   1  1.774323E+08  1.038990E+08 -3.788144E+08 -1.253975E+07 -2.164683E+08 -6.584601E+08
       439   2  1.773920E+08  1.039135E+08 -3.789941E+08  1.122342E+07  2.195493E+08 -6.573846E+08
       439   3  2.420005E+08  1.415533E+08 -3.178734E+08 -1.208609E+07 -2.546184E+08 -4.968009E+08
       439   4  2.419765E+08  1.415831E+08 -3.180091E+08  1.086979E+07  2.574928E+08 -4.957738E+08
       439   5  1.392296E+09  1.117866E+09  2.898349E+08 -4.679900E+07 -2.165079E+08 -6.460196E+08
       439   6  1.392417E+09  1.118191E+09  2.897966E+08  4.188639E+07  2.195097E+08 -6.449280E+08
       439   7  1.585550E+09  1.210676E+09  4.059284E+08 -4.510590E+07 -2.546488E+08 -4.843602E+08
       439   8  1.585677E+09  1.211004E+09  4.059273E+08  4.056662E+07  2.574624E+08 -4.833174E+08
       440   1  1.771967E+09  1.304357E+09 -4.662539E+08 -6.985407E+07 -2.429758E+08 -3.571531E+08
       440   2  1.772037E+09  1.304756E+09 -4.665905E+08  6.243633E+07  2.446022E+08 -3.559310E+08
       440   3  2.087481E+09  1.470041E+09 -2.295188E+08 -6.732180E+07 -2.769686E+08 -2.242216E+08
       440   4  2.087578E+09  1.470461E+09 -2.297570E+08  6.047435E+07  2.784897E+08 -2.230290E+08
       440   5  3.053829E+09  2.259339E+09  2.047994E+08 -9.858246E+07 -2.430852E+08 -3.191933E+08
       440   6  3.054082E+09  2.260110E+09  2.046293E+08  8.791684E+07  2.444928E+08 -3.179313E+08
       440   7  3.476795E+09  2.471079E+09  4.875867E+08 -9.499697E+07 -2.770553E+08 -1.862611E+08
       440   8  3.477065E+09  2.471857E+09  4.875078E+08  8.516646E+07  2.784030E+08 -1.850299E+08
       441   1 -1.728465E+09 -1.230971E+09  4.819381E+08 -3.742092E+08 -3.433618E+08 -3.223969E+08
       441   2 -2.089075E+09 -1.416282E+09  2.358314E+08 -3.501351E+08 -3.555060E+08 -1.868274E+08
       441   3 -1.737802E+09 -1.164051E+09  4.444781E+08 -5.291713E+08  1.307307E+08 -3.584747E+08
       441   4 -2.082214E+09 -1.336279E+09  2.349134E+08 -4.999086E+08  1.993031E+08 -2.292287E+08
       441   5 -2.992986E+09 -2.146268E+09 -1.720074E+08 -5.370689E+08 -3.286968E+08 -2.896185E+08
       441   6 -3.487637E+09 -2.391181E+09 -4.762067E+08 -4.997396E+08 -3.477939E+08 -1.535512E+08
       441   7 -2.984980E+09 -2.018980E+09 -1.861542E+08 -7.579771E+08  1.448490E+08 -3.379223E+08
       441   8 -3.463620E+09 -2.252680E+09 -4.544287E+08 -7.132602E+08  2.065080E+08 -2.077650E+08
       442   1 -1.357845E+09 -1.066296E+09 -2.703921E+08 -2.481159E+08 -4.158070E+08 -6.064682E+08
       442   2 -1.355711E+09 -1.016441E+09 -2.728218E+08 -3.512937E+08  3.828636E+05 -6.299674E+08
       442   3 -1.582520E+09 -1.174206E+09 -3.986373E+08 -2.329558E+08 -4.153351E+08 -4.407475E+08
       442   4 -1.577268E+09 -1.123204E+09 -3.947298E+08 -3.326762E+08  8.837550E+07 -4.661948E+08
       442   5 -1.708887E+08 -9.276845E+07  3.777533E+08 -6.648246E+07 -4.206617E+08 -6.178186E+08
       442   6 -1.779301E+08 -8.702301E+07  3.593378E+08 -9.412885E+07 -4.366243E+06 -6.389569E+08
       442   7 -2.431140E+08 -1.337066E+08  3.153343E+08 -6.242031E+07 -4.188471E+08 -4.521940E+08
       442   8 -2.471840E+08 -1.255177E+08  3.036013E+08 -8.914032E+07  8.496138E+07 -4.753603E+08
       443   1  1.708887E+08  9.276845E+07 -3.777533E+08  6.648246E+07 -4.206617E+08 -6.178186E+08
       443   2  1.779301E+08  8.702301E+07 -3.593378E+08  9.412885E+07 -4.366243E+06 -6.389569E+08
       443   3  2.431140E+08  1.337066E+08 -3.153343E+08  6.242031E+07 -4.188471E+08 -4.521940E+08
       443   4  2.471840E+08  1.255177E+08 -3.036013E+08  8.914032E+07  8.496138E+07 -4.753603E+08
       443   5  1.357845E+09  1.066296E+09  2.703921E+08  2.481159E+08 -4.158070E+08 -6.064682E+08
       443   6  1.355711E+09  1.016441E+09  2.728218E+08  3.512937E+08  3.828634E+05 -6.299674E+08
       443   7  1.582520E+09  1.174206E+09  3.986373E+08  2.329558E+08 -4.153351E+08 -4.407475E+08
       443   8  1.577268E+09  1.123204E+09  3.947298E+08  3.326762E+08  8.837550E+07 -4.661948E+08
       444   1  1.728465E+09  1.230971E+09 -4.819381E+08  3.742092E+08 -3.433618E+08 -3.223969E+08
       444   2  1.737802E+09  1.164051E+09 -4.444781E+08  5.291713E+08  1.307307E+08 -3.584747E+08
       444   3  2.089075E+09  1.416282E+09 -2.358314E+08  3.501351E+08 -3.555060E+08 -1.868274E+08
       444   4  2.082214E+09  1.336279E+09 -2.349134E+08  4.999086E+08  1.993031E+08 -2.292287E+08
       444   5  2.992986E+09  2.146268E+09  1.720074E+08  5.370689E+08 -3.286968E+08 -2.896185E+08
       444   6  2.984980E+09  2.018980E+09  1.861542E+08  7.579771E+08  1.448490E+08 -3.379223E+08
       444   7  3.487637E+09  2.391181E+09  4.762067E+08  4.997396E+08 -3.477939E+08 -1.535512E+08
       444   8  3.463620E+09  2.252680E+09  4.544287E+08  7.132602E+08  2.065080E+08 -2.077650E+08
       445   1 -1.450813E+09 -9.536287E+08  5.224362E+08 -8.607236E+08 -4.484368E+08 -2.887772E+08
       445   2 -2.116698E+09 -1.260783E+09  1.765795E+08 -8.209693E+08 -4.737757E+08 -1.256329E+08
       445   3 -1.609357E+09 -1.028200E+09  3.125361E+08 -1.174561E+09 -6.798374E+07 -4.338014E+08
       445   4 -2.283905E+09 -1.348964E+09 -6.604556E+07 -1.124436E+09  7.068528E+07 -2.490770E+08
       445   5 -2.578497E+09 -1.671354E+09 -3.118645E+07 -1.306281E+09 -4.130961E+08 -2.728523E+08
       445   6 -3.548397E+09 -2.111040E+09 -5.080074E+08 -1.246842E+09 -4.336441E+08 -1.105513E+08
       445   7 -2.772566E+09 -1.738971E+09 -2.496582E+08 -1.770241E+09 -3.189682E+07 -4.095259E+08
       445   8 -3.748142E+09 -2.191723E+09 -7.581443E+08 -1.695475E+09  1.115097E+08 -2.259220E+08
       446   1 -1.145222E+09 -8.714497E+08 -1.900673E+08 -5.502100E+08 -6.434835E+08 -5.989420E+08
       446   2 -1.223575E+09 -8.958385E+08 -2.681313E+08 -7.543889E+08 -3.533768E+08 -8.665400E+08
       446   3 -1.570399E+09 -1.063208E+09 -3.964976E+08 -5.245391E+08 -6.528729E+08 -3.998991E+08
       446   4 -1.644266E+09 -1.086306E+09 -4.722521E+08 -7.219698E+08 -2.025511E+08 -6.484697E+08
       446   5 -1.316192E+08 -5.826222E+07  3.579697E+08 -1.474283E+08 -6.555251E+08 -6.055870E+08
       446   6 -1.725657E+08 -8.474888E+07  2.904985E+08 -2.021379E+08 -3.653334E+08 -8.722333E+08
       446   7 -2.545618E+08 -1.186604E+08  2.816177E+08 -1.405498E+08 -6.643686E+08 -4.066402E+08
       446   8 -2.940628E+08 -1.445579E+08  2.153332E+08 -1.934512E+08 -2.139678E+08 -6.542907E+08
       447   1  1.316192E+08  5.826222E+07 -3.579697E+08  1.474283E+08 -6.555251E+08 -6.055870E+08
       447   2  1.725657E+08  8.474888E+07 -2.904985E+08  2.021379E+08 -3.653334E+08 -8.722333E+08
       447   3  2.545618E+08  1.186604E+08 -2.816177E+08  1.405498E+08 -6.643686E+08 -4.066402E+08
       447   4  2.940627E+08  1.445579E+08 -2.153332E+08  1.934512E+08 -2.139678E+08 -6.542907E+08
       447   5  1.145222E+09  8.714497E+08  1.900673E+08  5.502100E+08 -6.434835E+08 -5.989420E+08
       447   6  1.223575E+09  8.958385E+08  2.681313E+08  7.543889E+08 -3.533768E+08 -8.665400E+08
       447   7  1.570399E+09  1.063208E+09  3.964976E+08  5.245391E+08 -6.528729E+08 -3.998991E+08
       447   8  1.644266E+09  1.086306E+09  4.722521E+08  7.219698E+08 -2.025511E+08 -6.484697E+08
       448   1  1.450813E+09  9.536287E+08 -5.224362E+08  8.607235E+08 -4.484368E+08 -2.887772E+08
       448   2  1.609357E+09  1.028200E+09 -3.125361E+08  1.174561E+09 -6.798374E+07 -4.338014E+08
       448   3  2.116698E+09  1.260783E+09 -1.765795E+08  8.209693E+08 -4.737757E+08 -1.256329E+08
       448   4  2.283905E+09  1.348964E+09  6.604555E+07  1.124436E+09  7.068528E+07 -2.490770E+08
       448   5  2.578497E+09  1.671354E+09  3.118645E+07  1.306281E+09 -4.130961E+08 -2.728523E+08
       448   6  2.772566E+09  1.738971E+09  2.496582E+08  1.770241E+09 -3.189682E+07 -4.095259E+08
       448   7  3.548397E+09  2.111040E+09  5.080074E+08  1.246842E+09 -4.336441E+08 -1.105513E+08
       448   8  3.748142E+09  2.191723E+09  7.581443E+08  1.695475E+09  1.115097E+08 -2.259220E+08
       449   1 -7.303418E+08 -9.313501E+08  4.843020E+08 -9.288835E+08 -5.160475E+08 -6.207109E+08
       449   2 -1.135131E+09 -1.172407E+09  2.415629E+08 -8.367578E+08 -5.907850E+08 -3.312549E+08
       449   3 -7.557680E+08 -6.902110E+08  3.584212E+08 -1.085852E+09 -4.983721E+08 -1.397081E+09
       449   4 -1.096260E+09 -8.773120E+08  2.619025E+08 -9.892591E+08 -4.456923E+08 -1.069830E+09
       449   5 -1.438635E+09 -1.476262E+09  1.083403E+08 -1.599961E+09 -4.685506E+08 -6.139747E+08
       449   6 -2.067553E+09 -1.815529E+09 -2.311002E+08 -1.487251E+09 -5.701114E+08 -3.169831E+08
       449   7 -1.508667E+09 -1.241043E+09 -3.269791E+07 -1.865900E+09 -4.570739E+08 -1.436483E+09
       449   8 -2.069863E+09 -1.525311E+09 -2.245781E+08 -1.745248E+09 -4.307789E+08 -1.100214E+09
       450   1 -6.292466E+08 -8.349411E+08 -1.108380E+08 -5.388640E+08 -8.801763E+08 -1.261714E+09
       450   2 -5.843512E+08 -5.909797E+08 -8.423985E+07 -6.312044E+08 -9.705238E+08 -2.489249E+09
       450   3 -8.528995E+08 -9.658118E+08 -2.022782E+08 -4.721490E+08 -9.380725E+08 -9.723423E+08
       450   4 -7.527490E+08 -6.740646E+08 -4.783592E+07 -5.619690E+08 -9.382203E+08 -2.236917E+09
       450   5 -2.990291E+07 -8.501858E+07  2.939419E+08 -1.443882E+08 -8.935324E+08 -1.251847E+09
       450   6 -4.323832E+07 -4.501442E+07  2.418836E+08 -1.691307E+08 -9.786781E+08 -2.440664E+09
       450   7 -8.353058E+07 -1.137853E+08  2.841404E+08 -1.265119E+08 -9.289190E+08 -9.687992E+08
       450   8 -4.112252E+07 -2.003909E+07  3.618597E+08 -1.505791E+08 -9.242330E+08 -2.195899E+09
       451   1  2.990291E+07  8.501858E+07 -2.939419E+08  1.443882E+08 -8.935324E+08 -1.251847E+09
       451   2  4.323832E+07  4.501442E+07 -2.418836E+08  1.691307E+08 -9.786781E+08 -2.440664E+09
       451   3  8.353058E+07  1.137853E+08 -2.841404E+08  1.265119E+08 -9.289190E+08 -9.687992E+08
       451   4  4.112252E+07  2.003909E+07 -3.618597E+08  1.505791E+08 -9.242330E+08 -2.195899E+09
       451   5  6.292466E+08  8.349411E+08  1.108380E+08  5.388640E+08 -8.801763E+08 -1.261714E+09
       451   6  5.843512E+08  5.909797E+08  8.423985E+07  6.312044E+08 -9.705238E+08 -2.489249E+09
       451   7  8.528995E+08  9.658118E+08  2.022782E+08  4.721490E+08 -9.380725E+08 -9.723423E+08
       451   8  7.527490E+08  6.740645E+08  4.783592E+07  5.619690E+08 -9.382203E+08 -2.236917E+09
       452   1  7.303418E+08  9.313501E+08 -4.843020E+08  9.288835E+08 -5.160475E+08 -6.207109E+08
       452   2  7.557680E+08  6.902110E+08 -3.584212E+08  1.085852E+09 -4.983721E+08 -1.397081E+09
       452   3  1.135131E+09  1.172407E+09 -2.415629E+08  8.367578E+08 -5.907850E+08 -3.312549E+08
       452   4  1.096260E+09  8.773120E+08 -2.619025E+08  9.892591E+08 -4.456923E+08 -1.069830E+09
       452   5  1.438635E+09  1.476262E+09 -1.083403E+08  1.599961E+09 -4.685506E+08 -6.139747E+08
       452   6  1.508667E+09  1.241043E+09  3.269791E+07  1.865900E+09 -4.570739E+08 -1.436483E+09
       452   7  2.067553E+09  1.815529E+09  2.311002E+08  1.487251E+09 -5.701114E+08 -3.169831E+08
       452   8  2.069863E+09  1.525311E+09  2.245781E+08  1.745248E+09 -4.307789E+08 -1.100214E+09
       453   1 -1.418428E+09 -3.195864E+06  5.582686E+08  8.569272E+08  7.280043E+08 -3.672260E+08
       453   2 -1.949824E+09 -3.678517E+08  3.295531E+08  1.938537E+09  4.275237E+08 -1.690853E+09
       453   3 -3.369822E+09 -7.524988E+08 -5.901135E+07  7.183210E+08  9.633395E+08 -2.780815E+08
       453   4 -3.745054E+09 -9.759529E+08  1.314115E+07  1.767291E+09  1.571505E+08 -1.703959E+09
       453   5 -2.418367E+09  9.142347E+07  2.866728E+08  1.487040E+09  7.466218E+08 -4.410556E+08
       453   6 -2.929162E+09  1.807303E+08  2.003264E+08  3.030482E+09  4.564994E+08 -1.846605E+09
       453   7 -5.335686E+09 -1.141243E+09 -7.653936E+08  1.187440E+09  1.027138E+09 -3.391394E+08
       453   8 -5.683119E+09 -9.209828E+08 -5.517874E+08  2.685132E+09  2.306173E+08 -1.844486E+09
       454   1 -1.068201E+09 -2.680140E+08 -3.705611E+07  4.939394E+08  1.061219E+09 -9.456791E+08
       454   2 -2.391854E+09 -7.829108E+08 -5.464865E+08  4.310990E+08  1.285987E+09 -7.824220E+08
       454   3 -1.463169E+09 -6.565794E+08 -1.883562E+08  1.213658E+09  9.081252E+08 -2.743951E+09
       454   4 -2.744943E+09 -1.136361E+09 -6.450482E+08  1.128860E+09  5.958746E+08 -2.485147E+09
       454   5 -1.325738E+08  8.183559E+07  3.485869E+08  1.323507E+08  1.040391E+09 -9.342936E+08
       454   6 -4.694506E+08 -3.833559E+07  2.536071E+08  1.155126E+08  1.259409E+09 -7.726618E+08
       454   7 -2.030303E+08  1.309473E+07  3.905876E+08  3.251988E+08  8.859783E+08 -2.722140E+09
       454   8 -5.161674E+08 -8.514930E+07  3.389479E+08  3.024773E+08  5.680658E+08 -2.465273E+09
       455   1  1.325738E+08 -8.183559E+07 -3.485869E+08 -1.323507E+08  1.040391E+09 -9.342936E+08
       455   2  4.694506E+08  3.833559E+07 -2.536071E+08 -1.155126E+08  1.259409E+09 -7.726618E+08
       455   3  2.030303E+08 -1.309473E+07 -3.905876E+08 -3.251988E+08  8.859783E+08 -2.722140E+09
       455   4  5.161674E+08  8.514930E+07 -3.389479E+08 -3.024773E+08  5.680658E+08 -2.465273E+09
       455   5  1.068201E+09  2.680140E+08  3.705611E+07 -4.939394E+08  1.061219E+09 -9.456791E+08
       455   6  2.391854E+09  7.829108E+08  5.464865E+08 -4.310990E+08  1.285987E+09 -7.824220E+08
       455   7  1.463169E+09  6.565794E+08  1.883562E+08 -1.213658E+09  9.081252E+08 -2.743951E+09
       455   8  2.744943E+09  1.136361E+09  6.450482E+08 -1.128860E+09  5.958746E+08 -2.485147E+09
       456   1  1.418428E+09  3.195864E+06 -5.582686E+08 -8.569272E+08  7.280043E+08 -3.672260E+08
       456   2  3.369822E+09  7.524988E+08  5.901135E+07 -7.183210E+08  9.633395E+08 -2.780815E+08
       456   3  1.949824E+09  3.678517E+08 -3.295531E+08 -1.938537E+09  4.275237E+08 -1.690853E+09
       456   4  3.745054E+09  9.759529E+08 -1.314115E+07 -1.767291E+09  1.571505E+08 -1.703959E+09
       456   5  2.418367E+09 -9.142347E+07 -2.866728E+08 -1.487040E+09  7.466218E+08 -4.410556E+08
       456   6  5.335686E+09  1.141243E+09  7.653936E+08 -1.187440E+09  1.027138E+09 -3.391394E+08
       456   7  2.929162E+09 -1.807303E+08 -2.003264E+08 -3.030482E+09  4.564994E+08 -1.846605E+09
       456   8  5.683119E+09  9.209828E+08  5.517874E+08 -2.685132E+09  2.306173E+08 -1.844486E+09
       457   1 -1.954727E+09  6.520675E+07  4.531525E+08  8.688420E+08 -1.798042E+08 -1.873911E+08
       457   2 -2.368351E+09 -1.520018E+08  3.398896E+08  7.447700E+08 -3.435392E+08 -2.087410E+08
       457   3 -2.075468E+09 -4.469927E+08  3.996824E+08  6.588027E+08  4.826424E+08 -1.366856E+08
       457   4 -2.547501E+09 -7.090788E+08  1.475997E+08  5.407189E+08  4.645966E+08 -1.069129E+08
       457   5 -3.308086E+09 -1.741012E+08 -2.464756E+07  1.342421E+09 -2.078958E+08 -2.252800E+08
       457   6 -3.971792E+09 -5.267874E+08 -2.535785E+08  1.160848E+09 -3.472922E+08 -2.408119E+08
       457   7 -3.507748E+09 -9.402028E+08 -1.779646E+08  1.013895E+09  4.507616E+08 -1.293292E+08
       457   8 -4.228741E+09 -1.330447E+09 -5.431828E+08  8.417578E+08  4.573098E+08 -9.514444E+07
       458   1 -1.416001E+09 -1.445281E+08 -1.231014E+08  5.485237E+08  8.702264E+07 -5.461629E+08
       458   2 -1.531744E+09 -5.184921E+08 -2.374824E+08  4.170750E+08  6.473616E+08 -3.874640E+08
       458   3 -1.694615E+09 -3.013174E+08 -2.364184E+08  4.672702E+08 -7.785522E+07 -5.591694E+08
       458   4 -1.829720E+09 -6.857608E+08 -3.979505E+08  3.395491E+08  6.041285E+08 -3.360694E+08
       458   5 -2.336858E+08  1.070043E+08  3.070529E+08  1.469765E+08  9.374938E+07 -5.374559E+08
       458   6 -2.509601E+08  2.054005E+07  3.084625E+08  1.117549E+08  6.554149E+08 -3.945982E+08
       458   7 -3.010321E+08  7.230081E+07  2.937419E+08  1.252047E+08 -7.964984E+07 -5.524995E+08
       458   8 -3.396271E+08 -3.310408E+07  2.448744E+08  9.098192E+07  6.035712E+08 -3.447484E+08
       459   1  2.336858E+08 -1.070043E+08 -3.070529E+08 -1.469765E+08  9.374938E+07 -5.374559E+08
       459   2  2.509601E+08 -2.054005E+07 -3.084625E+08 -1.117549E+08  6.554149E+08 -3.945982E+08
       459   3  3.010321E+08 -7.230081E+07 -2.937419E+08 -1.252047E+08 -7.964983E+07 -5.524995E+08
       459   4  3.396271E+08  3.310408E+07 -2.448744E+08 -9.098192E+07  6.035712E+08 -3.447484E+08
       459   5  1.416001E+09  1.445281E+08  1.231014E+08 -5.485237E+08  8.702264E+07 -5.461629E+08
       459   6  1.531744E+09  5.184921E+08  2.374824E+08 -4.170750E+08  6.473616E+08 -3.874640E+08
       459   7  1.694615E+09  3.013174E+08  2.364184E+08 -4.672702E+08 -7.785522E+07 -5.591694E+08
       459   8  1.829720E+09  6.857608E+08  3.979505E+08 -3.395491E+08  6.041285E+08 -3.360694E+08
       460   1  1.954727E+09 -6.520675E+07 -4.531525E+08 -8.688420E+08 -1.798042E+08 -1.873911E+08
       460   2  2.075468E+09  4.469927E+08 -3.996824E+08 -6.588026E+08  4.826424E+08 -1.366856E+08
       460   3  2.368351E+09  1.520018E+08 -3.398896E+08 -7.447700E+08 -3.435392E+08 -2.087410E+08
       460   4  2.547501E+09  7.090788E+08 -1.475997E+08 -5.407189E+08  4.645966E+08 -1.069129E+08
       460   5  3.308086E+09  1.741012E+08  2.464756E+07 -1.342421E+09 -2.078958E+08 -2.252800E+08
       460   6  3.507748E+09  9.402028E+08  1.779646E+08 -1.013895E+09  4.507616E+08 -1.293292E+08
       460   7  3.971792E+09  5.267874E+08  2.535785E+08 -1.160848E+09 -3.472922E+08 -2.408119E+08
       460   8  4.228741E+09  1.330447E+09  5.431828E+08 -8.417578E+08  4.573098E+08 -9.514444E+07
       461   1 -1.964441E+09 -6.531182E+08  4.267632E+08  4.285303E+08 -2.375638E+08 -2.837450E+08
       461   2 -2.248345E+09 -8.056590E+08  2.224922E+08  4.020420E+08 -2.916378E+08 -2.495771E+08
       461   3 -1.985340E+09 -7.490978E+08  4.072166E+08  3.027739E+08  3.711122E+08 -2.283026E+08
       461   4 -2.272146E+09 -9.017729E+08  1.965158E+08  2.802347E+08  3.864305E+08 -1.837110E+08
       461   5 -3.276653E+09 -1.254346E+09 -1.472689E+08  6.049359E+08 -2.423249E+08 -2.542671E+08
       461   6 -3.659002E+09 -1.453462E+09 -3.950455E+08  5.634119E+08 -2.950307E+08 -2.199135E+08
       461   7 -3.321768E+09 -1.421076E+09 -1.953053E+08  4.287337E+08  3.662447E+08 -1.962683E+08
       461   8 -3.706518E+09 -1.618192E+09 -4.487216E+08  3.927305E+08  3.829384E+08 -1.515724E+08
       462   1 -1.494575E+09 -6.656112E+08 -2.538834E+08  2.870472E+08 -1.391496E+08 -5.029554E+08
       462   2 -1.503756E+09 -7.205730E+08 -2.603492E+08  2.024288E+08  4.240866E+08 -4.637909E+08
       462   3 -1.675958E+09 -7.583645E+08 -3.695116E+08  2.704970E+08 -2.119042E+08 -4.430246E+08
       462   4 -1.682714E+09 -8.091898E+08 -3.699403E+08  1.885394E+08  4.298025E+08 -4.005718E+08
       462   5 -2.339966E+08 -1.187635E+07  3.204106E+08  7.691407E+07 -1.356884E+08 -5.161999E+08
       462   6 -2.310605E+08 -2.120708E+07  3.312693E+08  5.424064E+07  4.274872E+08 -4.755806E+08
       462   7 -2.966987E+08 -5.083022E+07  2.565265E+08  7.247946E+07 -2.076644E+08 -4.561635E+08
       462   8 -2.913944E+08 -5.733432E+07  2.730121E+08  5.051897E+07  4.339859E+08 -4.123020E+08
       463   1  2.339966E+08  1.187635E+07 -3.204106E+08 -7.691407E+07 -1.356884E+08 -5.161999E+08
       463   2  2.310605E+08  2.120708E+07 -3.312693E+08 -5.424063E+07  4.274872E+08 -4.755806E+08
       463   3  2.966987E+08  5.083022E+07 -2.565265E+08 -7.247946E+07 -2.076644E+08 -4.561635E+08
       463   4  2.913944E+08  5.733432E+07 -2.730121E+08 -5.051897E+07  4.339859E+08 -4.123020E+08
       463   5  1.494575E+09  6.656112E+08  2.538834E+08 -2.870472E+08 -1.391496E+08 -5.029554E+08
       463   6  1.503756E+09  7.205730E+08  2.603492E+08 -2.024288E+08  4.240866E+08 -4.637909E+08
       463   7  1.675958E+09  7.583645E+08  3.695116E+08 -2.704970E+08 -2.119042E+08 -4.430246E+08
       463   8  1.682714E+09  8.091897E+08  3.699403E+08 -1.885394E+08  4.298025E+08 -4.005718E+08
       464   1  1.964441E+09  6.531182E+08 -4.267632E+08 -4.285303E+08 -2.375638E+08 -2.837450E+08
       464   2  1.985340E+09  7.490978E+08 -4.072166E+08 -3.027739E+08  3.711122E+08 -2.283026E+08
       464   3  2.248345E+09  8.056590E+08 -2.224922E+08 -4.020420E+08 -2.916378E+08 -2.495771E+08
       464   4  2.272146E+09  9.017729E+08 -1.965158E+08 -2.802347E+08  3.864305E+08 -1.837110E+08
       464   5  3.276653E+09  1.254346E+09  1.472689E+08 -6.049359E+08 -2.423249E+08 -2.542671E+08
       464   6  3.321768E+09  1.421076E+09  1.953053E+08 -4.287337E+08  3.662447E+08 -1.962683E+08
       464   7  3.659002E+09  1.453462E+09  3.950455E+08 -5.634119E+08 -2.950307E+08 -2.199135E+08
       464   8  3.706518E+09  1.618192E+09  4.487216E+08 -3.927305E+08  3.829384E+08 -1.515724E+08
       465   1 -1.952995E+09 -7.930025E+08  4.095374E+08  5.454609E+07 -3.002506E+08 -2.674965E+08
       465   2 -2.191699E+09 -9.220037E+08  2.182834E+08  5.262428E+07 -3.298213E+08 -2.240314E+08
       465   3 -1.953326E+09 -7.939255E+08  4.094586E+08 -4.801939E+07  3.016312E+08 -2.663291E+08
       465   4 -2.192111E+09 -9.229921E+08  2.179818E+08 -4.665145E+07  3.310116E+08 -2.227731E+08
       465   5 -3.266323E+09 -1.488371E+09 -1.930717E+08  7.675942E+07 -3.003143E+08 -2.342334E+08
       465   6 -3.583055E+09 -1.650823E+09 -4.177691E+08  7.400816E+07 -3.298441E+08 -1.907670E+08
       465   7 -3.266995E+09 -1.490056E+09 -1.934813E+08 -6.748515E+07  3.015675E+08 -2.329896E+08
       465   8 -3.583794E+09 -1.652548E+09 -4.183898E+08 -6.560984E+07  3.309888E+08 -1.894347E+08
       466   1 -1.484827E+09 -7.483602E+08 -2.582901E+08  3.660670E+07 -2.807481E+08 -5.091798E+08
       466   2 -1.485063E+09 -7.489406E+08 -2.584261E+08 -3.225241E+07  2.833245E+08 -5.082151E+08
       466   3 -1.629799E+09 -8.196795E+08 -3.510231E+08  3.533047E+07 -3.138680E+08 -4.497180E+08
       466   4 -1.630046E+09 -8.202628E+08 -3.512070E+08 -3.132003E+07  3.160724E+08 -4.487446E+08
       466   5 -2.239964E+08 -2.666064E+07  3.364691E+08  9.808737E+06 -2.807247E+08 -5.206229E+08
       466   6 -2.240136E+08 -2.677022E+07  3.365399E+08 -8.642008E+06  2.833479E+08 -5.196772E+08
       466   7 -2.746017E+08 -5.753090E+07  2.841806E+08  9.466770E+06 -3.138547E+08 -4.611614E+08
       466   8 -2.746404E+08 -5.765967E+07  2.841955E+08 -8.392176E+06  3.160856E+08 -4.602065E+08
       467   1  2.239964E+08  2.666064E+07 -3.364691E+08 -9.808737E+06 -2.807247E+08 -5.206229E+08
       467   2  2.240136E+08  2.677022E+07 -3.365399E+08  8.642008E+06  2.833479E+08 -5.196772E+08
       467   3  2.746017E+08  5.753090E+07 -2.841806E+08 -9.466770E+06 -3.138547E+08 -4.611614E+08
       467   4  2.746404E+08  5.765967E+07 -2.841955E+08  8.392176E+06  3.160856E+08 -4.602065E+08
       467   5  1.484827E+09  7.483602E+08  2.582901E+08 -3.660670E+07 -2.807481E+08 -5.091798E+08
       467   6  1.485063E+09  7.489406E+08  2.584261E+08  3.225241E+07  2.833245E+08 -5.082151E+08
       467   7  1.629799E+09  8.196795E+08  3.510231E+08 -3.533047E+07 -3.138680E+08 -4.497180E+08
       467   8  1.630046E+09  8.202627E+08  3.512070E+08  3.132003E+07  3.160724E+08 -4.487446E+08
       468   1  1.952995E+09  7.930025E+08 -4.095374E+08 -5.454609E+07 -3.002506E+08 -2.674965E+08
       468   2  1.953326E+09  7.939255E+08 -4.094586E+08  4.801939E+07  3.016312E+08 -2.663291E+08
       468   3  2.191699E+09  9.220037E+08 -2.182834E+08 -5.262428E+07 -3.298213E+08 -2.240314E+08
       468   4  2.192111E+09  9.229921E+08 -2.179818E+08  4.665145E+07  3.310116E+08 -2.227731E+08
       468   5  3.266323E+09  1.488371E+09  1.930717E+08 -7.675942E+07 -3.003143E+08 -2.342334E+08
       468   6  3.266995E+09  1.490056E+09  1.934813E+08  6.748515E+07  3.015675E+08 -2.329896E+08
       468   7  3.583055E+09  1.650823E+09  4.177691E+08 -7.400816E+07 -3.298441E+08 -1.907670E+08
       468   8  3.583794E+09  1.652548E+09  4.183898E+08  6.560984E+07  3.309888E+08 -1.894347E+08
       469   1 -1.983887E+09 -7.524022E+08  4.073848E+08 -2.967978E+08 -3.701505E+08 -2.300438E+08
       469   2 -2.269496E+09 -9.044289E+08  1.967765E+08 -2.750004E+08 -3.857892E+08 -1.856413E+08
       469   3 -1.963769E+09 -6.587296E+08  4.265740E+08 -4.221688E+08  2.393081E+08 -2.833901E+08
       469   4 -2.246673E+09 -8.107864E+08  2.218749E+08 -3.964166E+08  2.928220E+08 -2.493350E+08
       469   5 -3.319714E+09 -1.426270E+09 -1.955238E+08 -4.199609E+08 -3.654085E+08 -1.977939E+08
       469   6 -3.702284E+09 -1.622156E+09 -4.483780E+08 -3.849842E+08 -3.823268E+08 -1.532993E+08
       469   7 -3.275709E+09 -1.262689E+09 -1.481958E+08 -5.954227E+08  2.439507E+08 -2.535239E+08
       469   8 -3.656064E+09 -1.460720E+09 -3.959226E+08 -5.549237E+08  2.961918E+08 -2.193006E+08
       470   1 -1.502971E+09 -7.228211E+08 -2.605424E+08 -1.985229E+08 -4.219239E+08 -4.658268E+08
       470   2 -1.494480E+09 -6.696046E+08 -2.546507E+08 -2.829399E+08  1.421158E+08 -5.027074E+08
       470   3 -1.681110E+09 -8.109366E+08 -3.698276E+08 -1.851364E+08 -4.280751E+08 -4.028850E+08
       470   4 -1.675037E+09 -7.618264E+08 -3.700007E+08 -2.668868E+08  2.143791E+08 -4.428328E+08
       470   5 -2.307463E+08 -2.170567E+07  3.314598E+08 -5.319406E+07 -4.252857E+08 -4.776689E+08
       470   6 -2.338012E+08 -1.277654E+07  3.206013E+08 -7.581352E+07  1.386927E+08 -5.160208E+08
       470   7 -2.908990E+08 -5.773660E+07  2.731958E+08 -4.960715E+07 -4.322267E+08 -4.146703E+08
       470   8 -2.963366E+08 -5.164243E+07  2.566647E+08 -7.151211E+07  2.101703E+08 -4.560424E+08
       471   1  2.307463E+08  2.170567E+07 -3.314598E+08  5.319406E+07 -4.252857E+08 -4.776689E+08
       471   2  2.338012E+08  1.277654E+07 -3.206013E+08  7.581352E+07  1.386927E+08 -5.160208E+08
       471   3  2.908990E+08  5.773660E+07 -2.731958E+08  4.960715E+07 -4.322267E+08 -4.146703E+08
       471   4  2.963366E+08  5.164243E+07 -2.566647E+08  7.151211E+07  2.101703E+08 -4.560424E+08
       471   5  1.502971E+09  7.228211E+08  2.605424E+08  1.985229E+08 -4.219239E+08 -4.658268E+08
       471   6  1.494480E+09  6.696046E+08  2.546507E+08  2.829399E+08  1.421158E+08 -5.027074E+08
       471   7  1.681110E+09  8.109366E+08  3.698276E+08  1.851364E+08 -4.280751E+08 -4.028850E+08
       471   8  1.675037E+09  7.618264E+08  3.700007E+08  2.668868E+08  2.143791E+08 -4.428328E+08
       472   1  1.983887E+09  7.524022E+08 -4.073848E+08  2.967978E+08 -3.701505E+08 -2.300438E+08
       472   2  1.963769E+09  6.587296E+08 -4.265740E+08  4.221688E+08  2.393081E+08 -2.833901E+08
       472   3  2.269496E+09  9.044289E+08 -1.967765E+08  2.750004E+08 -3.857892E+08 -1.856413E+08
       472   4  2.246673E+09  8.107864E+08 -2.218749E+08  3.964166E+08  2.928220E+08 -2.493350E+08
       472   5  3.319714E+09  1.426270E+09  1.955238E+08  4.199609E+08 -3.654085E+08 -1.977939E+08
       472   6  3.275709E+09  1.262689E+09  1.481958E+08  5.954227E+08  2.439507E+08 -2.535239E+08
       472   7  3.702284E+09  1.622156E+09  4.483780E+08  3.849842E+08 -3.823268E+08 -1.532993E+08
       472   8  3.656064E+09  1.460720E+09  3.959226E+08  5.549237E+08  2.961918E+08 -2.193006E+08
       473   1 -2.073759E+09 -4.534654E+08  3.997931E+08 -6.552206E+08 -4.821324E+08 -1.378875E+08
       473   2 -2.541224E+09 -7.127037E+08  1.486747E+08 -5.386336E+08 -4.641164E+08 -1.084646E+08
       473   3 -1.953479E+09  5.623785E+07  4.524814E+08 -8.639921E+08  1.828655E+08 -1.848937E+08
       473   4 -2.362957E+09 -1.585862E+08  3.392736E+08 -7.413957E+08  3.461318E+08 -2.059157E+08
       473   5 -3.505645E+09 -9.513620E+08 -1.791417E+08 -1.007330E+09 -4.503643E+08 -1.298955E+08
       473   6 -4.219319E+09 -1.336937E+09 -5.420239E+08 -8.375564E+08 -4.567037E+08 -9.617957E+07
       473   7 -3.307020E+09 -1.898014E+08 -2.739281E+07 -1.333969E+09  2.108808E+08 -2.219135E+08
       473   8 -3.963839E+09 -5.382911E+08 -2.549025E+08 -1.154723E+09  3.500466E+08 -2.372313E+08
       474   1 -1.530960E+09 -5.226944E+08 -2.380740E+08 -4.151109E+08 -6.456634E+08 -3.879956E+08
       474   2 -1.415503E+09 -1.501971E+08 -1.242885E+08 -5.457384E+08 -8.287305E+07 -5.409466E+08
       474   3 -1.825711E+09 -6.878263E+08 -3.972053E+08 -3.385154E+08 -6.024116E+08 -3.368752E+08
       474   4 -1.691131E+09 -3.051218E+08 -2.367734E+08 -4.654031E+08  8.159374E+07 -5.537941E+08
       474   5 -2.505667E+08  1.959729E+07  3.087315E+08 -1.112286E+08 -6.537083E+08 -3.952671E+08
       474   6 -2.333985E+08  1.056390E+08  3.070935E+08 -1.462302E+08 -8.960837E+07 -5.325099E+08
       474   7 -3.384843E+08 -3.358906E+07  2.452339E+08 -9.070493E+07 -6.019570E+08 -3.456449E+08
       474   8 -3.002078E+08  7.117208E+07  2.933916E+08 -1.247044E+08  8.326898E+07 -5.473481E+08
       475   1  2.505667E+08 -1.959729E+07 -3.087315E+08  1.112286E+08 -6.537083E+08 -3.952671E+08
       475   2  2.333985E+08 -1.056390E+08 -3.070935E+08  1.462302E+08 -8.960837E+07 -5.325099E+08
       475   3  3.384843E+08  3.358906E+07 -2.452339E+08  9.070492E+07 -6.019570E+08 -3.456449E+08
       475   4  3.002078E+08 -7.117208E+07 -2.933916E+08  1.247044E+08  8.326898E+07 -5.473481E+08
       475   5  1.530960E+09  5.226944E+08  2.380740E+08  4.151109E+08 -6.456634E+08 -3.879956E+08
       475   6  1.415503E+09  1.501971E+08  1.242885E+08  5.457384E+08 -8.287305E+07 -5.409466E+08
       475   7  1.825711E+09  6.878263E+08  3.972053E+08  3.385154E+08 -6.024116E+08 -3.368752E+08
       475   8  1.691131E+09  3.051218E+08  2.367734E+08  4.654031E+08  8.159374E+07 -5.537941E+08
       476   1  2.073759E+09  4.534654E+08 -3.997931E+08  6.552206E+08 -4.821324E+08 -1.378875E+08
       476   2  1.953479E+09 -5.623785E+07 -4.524814E+08  8.639921E+08  1.828655E+08 -1.848937E+08
       476   3  2.541224E+09  7.127037E+08 -1.486747E+08  5.386336E+08 -4.641164E+08 -1.084646E+08
       476   4  2.362957E+09  1.585862E+08 -3.392736E+08  7.413956E+08  3.461318E+08 -2.059157E+08
       476   5  3.505645E+09  9.513620E+08  1.791417E+08  1.007330E+09 -4.503643E+08 -1.298955E+08
       476   6  3.307020E+09  1.898014E+08  2.739281E+07  1.333969E+09  2.108808E+08 -2.219135E+08
       476   7  4.219319E+09  1.336937E+09  5.420239E+08  8.375564E+08 -4.567037E+08 -9.617957E+07
       476   8  3.963839E+09  5.382911E+08  2.549025E+08  1.154723E+09  3.500466E+08 -2.372313E+08
       477   1 -1.420865E+09 -7.243063E+06  5.573370E+08 -8.543745E+08 -7.296236E+08 -3.636349E+08
       477   2 -3.362368E+09 -7.540018E+08 -5.824075E+07 -7.165578E+08 -9.637425E+08 -2.755983E+08
       477   3 -1.947237E+09 -3.656279E+08  3.301784E+08 -1.937299E+09 -4.236861E+08 -1.686179E+09
       477   4 -3.732432E+09 -9.711016E+08  1.584183E+07 -1.766347E+09 -1.513161E+08 -1.700306E+09
       477   5 -2.420842E+09  8.326682E+07  2.844969E+08 -1.482954E+09 -7.475947E+08 -4.368378E+08
       477   6 -5.322708E+09 -1.143985E+09 -7.633377E+08 -1.185110E+09 -1.026672E+09 -3.361658E+08
       477   7 -2.923610E+09  1.827309E+08  2.017740E+08 -3.028425E+09 -4.519439E+08 -1.841480E+09
       477   8 -5.662111E+09 -9.138136E+08 -5.458753E+08 -2.684116E+09 -2.238416E+08 -1.840477E+09
       478   1 -1.070464E+09 -2.703727E+08 -3.825538E+07 -4.923687E+08 -1.061910E+09 -9.391519E+08
       478   2 -1.461743E+09 -6.545190E+08 -1.875357E+08 -1.212918E+09 -9.027677E+08 -2.738179E+09
       478   3 -2.387349E+09 -7.835183E+08 -5.457357E+08 -4.298719E+08 -1.285316E+09 -7.773557E+08
       478   4 -2.736503E+09 -1.132298E+09 -6.417308E+08 -1.128137E+09 -5.883141E+08 -2.481001E+09
       478   5 -1.331012E+08  8.128272E+07  3.484502E+08 -1.319298E+08 -1.041338E+09 -9.279103E+08
       478   6 -2.027433E+08  1.355157E+07  3.905853E+08 -3.250004E+08 -8.808699E+08 -2.716359E+09
       478   7 -4.684203E+08 -3.867510E+07  2.533959E+08 -1.151838E+08 -1.258951E+09 -7.677422E+08
       478   8 -5.140891E+08 -8.424365E+07  3.394096E+08 -3.022834E+08 -5.607124E+08 -2.461130E+09
       479   1  1.331012E+08 -8.128272E+07 -3.484502E+08  1.319298E+08 -1.041338E+09 -9.279103E+08
       479   2  2.027433E+08 -1.355157E+07 -3.905853E+08  3.250004E+08 -8.808699E+08 -2.716359E+09
       479   3  4.684203E+08  3.867510E+07 -2.533959E+08  1.151838E+08 -1.258951E+09 -7.677422E+08
       479   4  5.140891E+08  8.424365E+07 -3.394096E+08  3.022834E+08 -5.607124E+08 -2.461130E+09
       479   5  1.070464E+09  2.703727E+08  3.825538E+07  4.923687E+08 -1.061910E+09 -9.391519E+08
       479   6  1.461743E+09  6.545190E+08  1.875357E+08  1.212918E+09 -9.027677E+08 -2.738179E+09
       479   7  2.387349E+09  7.835183E+08  5.457357E+08  4.298719E+08 -1.285316E+09 -7.773557E+08
       479   8  2.736503E+09  1.132298E+09  6.417308E+08  1.128137E+09 -5.883141E+08 -2.481001E+09
       480   1  1.420864E+09  7.243063E+06 -5.573370E+08  8.543745E+08 -7.296236E+08 -3.636349E+08
       480   2  1.947237E+09  3.656279E+08 -3.301784E+08  1.937299E+09 -4.236861E+08 -1.686179E+09
       480   3  3.362368E+09  7.540018E+08  5.824074E+07  7.165578E+08 -9.637425E+08 -2.755983E+08
       480   4  3.732432E+09  9.711016E+08 -1.584184E+07  1.766347E+09 -1.513161E+08 -1.700306E+09
       480   5  2.420842E+09 -8.326682E+07 -2.844969E+08  1.482954E+09 -7.475947E+08 -4.368378E+08
       480   6  2.923610E+09 -1.827309E+08 -2.017740E+08  3.028425E+09 -4.519439E+08 -1.841480E+09
       480   7  5.322708E+09  1.143985E+09  7.633377E+08  1.185110E+09 -1.026672E+09 -3.361658E+08
       480   8  5.662111E+09  9.138136E+08  5.458753E+08  2.684116E+09 -2.238416E+08 -1.840477E+09
       481   1 -3.209100E+09  2.931346E+08  3.182548E+08  7.009087E+07  1.006150E+09 -6.585665E+08
       481   2 -3.103228E+09  2.124538E+08  6.002383E+08 -6.152935E+07 -1.864140E+08  1.217728E+08
       481   3 -2.923774E+09  2.481124E+08  2.393790E+08  6.019758E+07  6.816647E+08 -5.439506E+08
       481   4 -2.904184E+09  5.190382E+07  3.110915E+08 -8.806487E+07 -3.385718E+08  3.153779E+08
       481   5 -5.146654E+09  2.271433E+08 -2.828089E+08  1.530585E+08  1.068503E+09 -6.535082E+08
       481   6 -4.966230E+09  2.633814E+08  5.661589E+07 -5.121970E+07 -1.288650E+08  1.655564E+08
       481   7 -4.624794E+09  3.296158E+08 -2.464761E+08  7.956973E+07  7.099560E+08 -5.178712E+08
       481   8 -4.517096E+09  2.675903E+08 -1.080762E+08 -1.515774E+08 -3.162944E+08  3.854031E+08
       482   1 -2.279468E+09 -5.761676E+07 -2.938162E+08  3.132823E+07  1.292280E+09 -1.094924E+09
       482   2 -2.076184E+09 -8.916676E+07 -2.806975E+08  4.188407E+07  8.730614E+08 -8.123912E+08
       482   3 -2.279017E+09 -2.165251E+08 -2.315647E+08 -5.150281E+07  2.059001E+08 -5.267066E+08
       482   4 -2.102360E+09 -2.988381E+08 -2.811699E+08 -5.112009E+07 -5.268552E+07 -5.229449E+07
       482   5 -4.387599E+08  1.565835E+08  3.226565E+08  8.394375E+06  1.266483E+09 -1.090078E+09
       482   6 -4.005085E+08  1.319113E+08  2.883288E+08  1.122280E+07  8.551036E+08 -8.123836E+08
       482   7 -3.922711E+08  1.603718E+08  4.475280E+08 -1.380014E+07  1.812084E+08 -5.307737E+08
       482   8 -3.778397E+08  1.054126E+08  3.574614E+08 -1.369759E+07 -6.925926E+07 -6.240122E+07
       483   1  4.387599E+08 -1.565835E+08 -3.226565E+08 -8.394375E+06  1.266483E+09 -1.090078E+09
       483   2  4.005085E+08 -1.319113E+08 -2.883288E+08 -1.122280E+07  8.551036E+08 -8.123836E+08
       483   3  3.922711E+08 -1.603718E+08 -4.475280E+08  1.380014E+07  1.812084E+08 -5.307737E+08
       483   4  3.778397E+08 -1.054126E+08 -3.574614E+08  1.369759E+07 -6.925926E+07 -6.240122E+07
       483   5  2.279468E+09  5.761676E+07  2.938162E+08 -3.132823E+07  1.292280E+09 -1.094924E+09
       483   6  2.076184E+09  8.916676E+07  2.806975E+08 -4.188407E+07  8.730614E+08 -8.123912E+08
       483   7  2.279017E+09  2.165251E+08  2.315647E+08  5.150281E+07  2.059001E+08 -5.267066E+08
       483   8  2.102360E+09  2.988381E+08  2.811699E+08  5.112009E+07 -5.268552E+07 -5.229449E+07
       484   1  3.209100E+09 -2.931346E+08 -3.182548E+08 -7.009087E+07  1.006150E+09 -6.585665E+08
       484   2  2.923774E+09 -2.481124E+08 -2.393790E+08 -6.019758E+07  6.816647E+08 -5.439506E+08
       484   3  3.103228E+09 -2.124538E+08 -6.002383E+08  6.152935E+07 -1.864140E+08  1.217728E+08
       484   4  2.904184E+09 -5.190382E+07 -3.110915E+08  8.806487E+07 -3.385718E+08  3.153779E+08
       484   5  5.146654E+09 -2.271433E+08  2.828089E+08 -1.530585E+08  1.068503E+09 -6.535083E+08
       484   6  4.624794E+09 -3.296158E+08  2.464761E+08 -7.956973E+07  7.099560E+08 -5.178712E+08
       484   7  4.966230E+09 -2.633814E+08 -5.661588E+07  5.121970E+07 -1.288650E+08  1.655564E+08
       484   8  4.517096E+09 -2.675903E+08  1.080762E+08  1.515774E+08 -3.162944E+08  3.854031E+08
       485   1 -2.362529E+09 -6.468958E+06  3.791117E+08  2.976458E+08 -4.066424E+08  1.396622E+08
       485   2 -2.455489E+09  4.999672E+06  2.617817E+08  2.551805E+08 -3.440359E+08 -1.905886E+07
       485   3 -2.451617E+09 -2.229739E+08  2.798221E+08  2.762652E+08  4.643494E+08 -2.920604E+08
       485   4 -2.548923E+09 -2.320016E+08  1.640004E+08  2.317620E+08  4.267285E+08 -3.629414E+08
       485   5 -3.927483E+09 -2.647291E+08 -1.678523E+08  4.688645E+08 -4.071368E+08  1.667320E+08
       485   6 -3.926386E+09 -1.119659E+08 -2.145770E+08  3.527338E+08 -3.469477E+08  9.276255E+06
       485   7 -4.134131E+09 -7.483242E+08 -3.825371E+08  4.668888E+08  4.640782E+08 -2.677057E+08
       485   8 -4.152255E+09 -6.490411E+08 -4.421111E+08  3.518270E+08  4.240932E+08 -3.376549E+08
       486   1 -1.699565E+09 -2.186085E+08 -2.152488E+08  1.853192E+08 -1.706480E+08 -1.942072E+08
       486   2 -1.743334E+09 -3.197032E+08 -2.776160E+08  1.628552E+08  5.825806E+08 -5.080881E+08
       486   3 -1.771154E+09 -2.214741E+08 -2.607850E+08  1.730933E+08 -1.937489E+08 -2.489254E+08
       486   4 -1.816967E+09 -3.321213E+08 -3.246057E+08  1.481251E+08  5.110693E+08 -5.587748E+08
       486   5 -3.032699E+08  9.355119E+07  2.972876E+08  4.965614E+07 -1.745654E+08 -1.988536E+08
       486   6 -3.229834E+08  5.847741E+07  2.619435E+08  4.363691E+07  5.786571E+08 -5.126595E+08
       486   7 -3.322503E+08  8.298523E+07  2.622240E+08  4.638020E+07 -1.975996E+08 -2.536066E+08
       486   8 -3.516559E+08  4.620718E+07  2.284860E+08  3.969001E+07  5.072110E+08 -5.633720E+08
       487   1  3.032699E+08 -9.355119E+07 -2.972876E+08 -4.965614E+07 -1.745654E+08 -1.988536E+08
       487   2  3.229834E+08 -5.847741E+07 -2.619435E+08 -4.363691E+07  5.786571E+08 -5.126595E+08
       487   3  3.322503E+08 -8.298523E+07 -2.622240E+08 -4.638020E+07 -1.975996E+08 -2.536066E+08
       487   4  3.516559E+08 -4.620718E+07 -2.284860E+08 -3.969001E+07  5.072110E+08 -5.633720E+08
       487   5  1.699565E+09  2.186085E+08  2.152488E+08 -1.853192E+08 -1.706480E+08 -1.942072E+08
       487   6  1.743334E+09  3.197032E+08  2.776160E+08 -1.628551E+08  5.825806E+08 -5.080881E+08
       487   7  1.771154E+09  2.214741E+08  2.607850E+08 -1.730933E+08 -1.937489E+08 -2.489254E+08
       487   8  1.816967E+09  3.321213E+08  3.246057E+08 -1.481251E+08  5.110693E+08 -5.587748E+08
       488   1  2.362529E+09  6.468957E+06 -3.791117E+08 -2.976458E+08 -4.066424E+08  1.396621E+08
       488   2  2.451617E+09  2.229739E+08 -2.798221E+08 -2.762652E+08  4.643494E+08 -2.920604E+08
       488   3  2.455489E+09 -4.999672E+06 -2.617817E+08 -2.551805E+08 -3.440359E+08 -1.905886E+07
       488   4  2.548923E+09  2.320016E+08 -1.640004E+08 -2.317620E+08  4.267285E+08 -3.629414E+08
       488   5  3.927483E+09  2.647291E+08  1.678523E+08 -4.688645E+08 -4.071368E+08  1.667320E+08
       488   6  4.134131E+09  7.483242E+08  3.825371E+08 -4.668888E+08  4.640782E+08 -2.677057E+08
       488   7  3.926386E+09  1.119659E+08  2.145770E+08 -3.527338E+08 -3.469477E+08  9.276254E+06
       488   8  4.152255E+09  6.490411E+08  4.421111E+08 -3.518270E+08  4.240932E+08 -3.376549E+08
       489   1 -2.087094E+09 -1.903065E+08  3.976464E+08  2.124341E+08 -3.121415E+08 -5.050082E+07
       489   2 -2.243695E+09 -2.434391E+08  2.500772E+08  1.744743E+08 -3.003607E+08 -1.143954E+08
       489   3 -2.162675E+09 -3.812486E+08  3.216595E+08  1.724268E+08  3.847501E+08 -2.407117E+08
       489   4 -2.333949E+09 -4.628773E+08  1.501911E+08  1.300784E+08  3.495144E+08 -2.760698E+08
       489   5 -3.432831E+09 -6.064610E+08 -1.309213E+08  2.983532E+08 -3.140632E+08 -2.545563E+07
       489   6 -3.633182E+09 -6.593873E+08 -2.915532E+08  2.427869E+08 -2.996994E+08 -9.012237E+07
       489   7 -3.543887E+09 -8.849467E+08 -2.438132E+08  2.418770E+08  3.827080E+08 -2.127197E+08
       489   8 -3.762745E+09 -9.764293E+08 -4.325133E+08  1.801264E+08  3.500272E+08 -2.485071E+08
       490   1 -1.553415E+09 -3.258141E+08 -2.241361E+08  1.427388E+08 -2.447504E+08 -2.340913E+08
       490   2 -1.596303E+09 -4.446523E+08 -2.582880E+08  1.159402E+08  4.218539E+08 -4.503218E+08
       490   3 -1.639856E+09 -3.433405E+08 -2.797285E+08  1.178834E+08 -2.479014E+08 -3.059401E+08
       490   4 -1.694483E+09 -4.830226E+08 -3.344983E+08  8.814193E+07  3.790340E+08 -4.892779E+08
       490   5 -2.727969E+08  5.613786E+07  2.746350E+08  3.824675E+07 -2.411711E+08 -2.422156E+08
       490   6 -2.782214E+08  3.036248E+07  2.796409E+08  3.106607E+07  4.255432E+08 -4.611354E+08
       490   7 -3.062647E+08  4.113570E+07  2.356918E+08  3.158677E+07 -2.466793E+08 -3.133597E+08
       490   8 -3.194139E+08  5.195793E+06  2.244878E+08  2.361756E+07  3.803917E+08 -4.996997E+08
       491   1  2.727969E+08 -5.613786E+07 -2.746350E+08 -3.824675E+07 -2.411711E+08 -2.422156E+08
       491   2  2.782214E+08 -3.036248E+07 -2.796409E+08 -3.106607E+07  4.255432E+08 -4.611354E+08
       491   3  3.062647E+08 -4.113570E+07 -2.356918E+08 -3.158677E+07 -2.466793E+08 -3.133598E+08
       491   4  3.194139E+08 -5.195792E+06 -2.244878E+08 -2.361756E+07  3.803917E+08 -4.996997E+08
       491   5  1.553415E+09  3.258141E+08  2.241361E+08 -1.427388E+08 -2.447504E+08 -2.340913E+08
       491   6  1.596303E+09  4.446523E+08  2.582880E+08 -1.159402E+08  4.218539E+08 -4.503218E+08
       491   7  1.639856E+09  3.433405E+08  2.797285E+08 -1.178834E+08 -2.479014E+08 -3.059401E+08
       491   8  1.694483E+09  4.830226E+08  3.344983E+08 -8.814193E+07  3.790340E+08 -4.892779E+08
       492   1  2.087094E+09  1.903065E+08 -3.976464E+08 -2.124341E+08 -3.121415E+08 -5.050082E+07
       492   2  2.162675E+09  3.812486E+08 -3.216595E+08 -1.724268E+08  3.847501E+08 -2.407117E+08
       492   3  2.243695E+09  2.434391E+08 -2.500772E+08 -1.744743E+08 -3.003607E+08 -1.143954E+08
       492   4  2.333949E+09  4.628772E+08 -1.501911E+08 -1.300784E+08  3.495144E+08 -2.760698E+08
       492   5  3.432831E+09  6.064610E+08  1.309213E+08 -2.983532E+08 -3.140632E+08 -2.545563E+07
       492   6  3.543887E+09  8.849467E+08  2.438132E+08 -2.418770E+08  3.827080E+08 -2.127197E+08
       492   7  3.633182E+09  6.593873E+08  2.915532E+08 -2.427869E+08 -2.996994E+08 -9.012237E+07
       492   8  3.762745E+09  9.764293E+08  4.325133E+08 -1.801264E+08  3.500272E+08 -2.485071E+08
       493   1 -2.052540E+09 -3.511305E+08  3.652151E+08  1.994019E+07 -3.322256E+08 -1.656111E+08
       493   2 -2.221478E+09 -4.562266E+08  1.834183E+08  2.156277E+07 -3.095921E+08 -2.014442E+08
       493   3 -2.053661E+09 -3.537815E+08  3.641550E+08 -1.675760E+07  3.334729E+08 -1.698294E+08
       493   4 -2.222700E+09 -4.591553E+08  1.822953E+08 -1.933726E+07  3.104497E+08 -2.055592E+08
       493   5 -3.377478E+09 -8.415857E+08 -1.794030E+08  2.911002E+07 -3.322393E+08 -1.368031E+08
       493   6 -3.598376E+09 -9.688928E+08 -3.834510E+08  3.152137E+07 -3.096210E+08 -1.726350E+08
       493   7 -3.379085E+09 -8.453600E+08 -1.809458E+08 -2.469015E+07  3.334592E+08 -1.410389E+08
       493   8 -3.600138E+09 -9.730730E+08 -3.851113E+08 -2.843942E+07  3.104208E+08 -1.767695E+08
       494   1 -1.523317E+09 -4.223525E+08 -2.244287E+08  1.307923E+07 -3.182521E+08 -3.845735E+08
       494   2 -1.524069E+09 -4.241274E+08 -2.251452E+08 -1.092637E+07  3.203344E+08 -3.890324E+08
       494   3 -1.618871E+09 -4.761428E+08 -3.084534E+08  1.413122E+07 -2.974789E+08 -4.225869E+08
       494   4 -1.619722E+09 -4.781345E+08 -3.092846E+08 -1.262325E+07  2.988627E+08 -4.268433E+08
       494   5 -2.564376E+08  3.856490E+07  2.939103E+08  3.504570E+06 -3.182436E+08 -3.959196E+08
       494   6 -2.566216E+08  3.810695E+07  2.937595E+08 -2.927712E+06  3.203428E+08 -4.003828E+08
       494   7 -2.986058E+08  7.587148E+06  2.327450E+08  3.786450E+06 -2.974742E+08 -4.339327E+08
       494   8 -2.988248E+08  7.062624E+06  2.325437E+08 -3.382389E+06  2.988674E+08 -4.381939E+08
       495   1  2.564376E+08 -3.856490E+07 -2.939103E+08 -3.504570E+06 -3.182436E+08 -3.959196E+08
       495   2  2.566216E+08 -3.810694E+07 -2.937595E+08  2.927712E+06  3.203428E+08 -4.003828E+08
       495   3  2.986058E+08 -7.587148E+06 -2.327450E+08 -3.786450E+06 -2.974742E+08 -4.339327E+08
       495   4  2.988248E+08 -7.062624E+06 -2.325437E+08  3.382389E+06  2.988674E+08 -4.381939E+08
       495   5  1.523317E+09  4.223525E+08  2.244287E+08 -1.307923E+07 -3.182521E+08 -3.845735E+08
       495   6  1.524069E+09  4.241274E+08  2.251452E+08  1.092637E+07  3.203344E+08 -3.890324E+08
       495   7  1.618871E+09  4.761428E+08  3.084534E+08 -1.413122E+07 -2.974789E+08 -4.225869E+08
       495   8  1.619722E+09  4.781345E+08  3.092846E+08  1.262325E+07  2.988627E+08 -4.268433E+08
       496   1  2.052540E+09  3.511305E+08 -3.652151E+08 -1.994019E+07 -3.322256E+08 -1.656111E+08
       496   2  2.053661E+09  3.537815E+08 -3.641550E+08  1.675760E+07  3.334729E+08 -1.698294E+08
       496   3  2.221478E+09  4.562266E+08 -1.834183E+08 -2.156277E+07 -3.095921E+08 -2.014442E+08
       496   4  2.222700E+09  4.591553E+08 -1.822953E+08  1.933726E+07  3.104497E+08 -2.055592E+08
       496   5  3.377478E+09  8.415857E+08  1.794030E+08 -2.911002E+07 -3.322393E+08 -1.368031E+08
       496   6  3.379085E+09  8.453600E+08  1.809458E+08  2.469015E+07  3.334592E+08 -1.410389E+08
       496   7  3.598376E+09  9.688928E+08  3.834510E+08 -3.152137E+07 -3.096210E+08 -1.726350E+08
       496   8  3.600138E+09  9.730730E+08  3.851113E+08  2.843942E+07  3.104208E+08 -1.767695E+08
       497   1 -2.158708E+09 -3.803986E+08  3.232543E+08 -1.695040E+08 -3.838182E+08 -2.366076E+08
       497   2 -2.332323E+09 -4.649616E+08  1.503556E+08 -1.276918E+08 -3.487761E+08 -2.727461E+08
       497   3 -2.084595E+09 -1.927853E+08  3.978717E+08 -2.100655E+08  3.131153E+08 -5.444649E+07
       497   4 -2.243564E+09 -2.490099E+08  2.489922E+08 -1.727403E+08  3.010927E+08 -1.188496E+08
       497   5 -3.537770E+09 -8.838865E+08 -2.415106E+08 -2.374966E+08 -3.817956E+08 -2.086882E+08
       497   6 -3.760540E+09 -9.799680E+08 -4.326114E+08 -1.767721E+08 -3.493494E+08 -2.452333E+08
       497   7 -3.429253E+09 -6.111201E+08 -1.310262E+08 -2.949245E+08  3.150151E+08 -2.952528E+07
       497   8 -3.633648E+09 -6.690225E+08 -2.940364E+08 -2.405444E+08  3.003680E+08 -9.468597E+07
       498   1 -1.593806E+09 -4.440545E+08 -2.572624E+08 -1.140558E+08 -4.200134E+08 -4.464949E+08
       498   2 -1.551761E+09 -3.271441E+08 -2.238736E+08 -1.411767E+08  2.468358E+08 -2.380011E+08
       498   3 -1.693488E+09 -4.843682E+08 -3.345766E+08 -8.653909E+07 -3.777719E+08 -4.862271E+08
       498   4 -1.639831E+09 -3.468105E+08 -2.807632E+08 -1.166627E+08  2.491644E+08 -3.107533E+08
       498   5 -2.775113E+08  3.056371E+07  2.800115E+08 -3.056115E+07 -4.236797E+08 -4.572823E+08
       498   6 -2.722838E+08  5.585121E+07  2.748681E+08 -3.782819E+07  2.432783E+08 -2.461294E+08
       498   7 -3.191361E+08  4.846694E+06  2.244936E+08 -2.318808E+07 -3.791360E+08 -4.966539E+08
       498   8 -3.062584E+08  4.020538E+07  2.354133E+08 -3.125967E+07  2.479345E+08 -3.182098E+08
       499   1  2.775113E+08 -3.056371E+07 -2.800115E+08  3.056115E+07 -4.236797E+08 -4.572823E+08
       499   2  2.722838E+08 -5.585121E+07 -2.748681E+08  3.782819E+07  2.432783E+08 -2.461294E+08
       499   3  3.191361E+08 -4.846694E+06 -2.244936E+08  2.318808E+07 -3.791360E+08 -4.966539E+08
       499   4  3.062584E+08 -4.020538E+07 -2.354133E+08  3.125967E+07  2.479345E+08 -3.182098E+08
       499   5  1.593806E+09  4.440545E+08  2.572624E+08  1.140558E+08 -4.200134E+08 -4.464949E+08
       499   6  1.551761E+09  3.271441E+08  2.238736E+08  1.411767E+08  2.468358E+08 -2.380011E+08
       499   7  1.693488E+09  4.843682E+08  3.345765E+08  8.653909E+07 -3.777719E+08 -4.862271E+08
       499   8  1.639831E+09  3.468105E+08  2.807632E+08  1.166627E+08  2.491644E+08 -3.107533E+08
       500   1  2.158708E+09  3.803986E+08 -3.232543E+08  1.695040E+08 -3.838182E+08 -2.366076E+08
       500   2  2.084595E+09  1.927853E+08 -3.978717E+08  2.100655E+08  3.131153E+08 -5.444649E+07
       500   3  2.332323E+09  4.649616E+08 -1.503556E+08  1.276918E+08 -3.487761E+08 -2.727461E+08
       500   4  2.243564E+09  2.490099E+08 -2.489922E+08  1.727403E+08  3.010927E+08 -1.188496E+08
       500   5  3.537770E+09  8.838865E+08  2.415106E+08  2.374966E+08 -3.817956E+08 -2.086882E+08
       500   6  3.429253E+09  6.111201E+08  1.310262E+08  2.949245E+08  3.150151E+08 -2.952528E+07
       500   7  3.760540E+09  9.799680E+08  4.326114E+08  1.767721E+08 -3.493494E+08 -2.452333E+08
       500   8  3.633648E+09  6.690225E+08  2.940364E+08  2.405444E+08  3.003680E+08 -9.468597E+07
       501   1 -2.445946E+09 -2.271320E+08  2.802561E+08 -2.762884E+08 -4.634247E+08 -2.880199E+08
       501   2 -2.547398E+09 -2.381218E+08  1.630448E+08 -2.310818E+08 -4.265776E+08 -3.607552E+08
       501   3 -2.355736E+09 -6.714502E+06  3.803328E+08 -2.990540E+08  4.083558E+08  1.374006E+08
       501   4 -2.452495E+09  3.726101E+06  2.621359E+08 -2.560720E+08  3.447099E+08 -2.393814E+07
       501   5 -4.124444E+09 -7.528672E+08 -3.810140E+08 -4.657387E+08 -4.629970E+08 -2.637389E+08
       501   6 -4.150539E+09 -6.591696E+08 -4.442119E+08 -3.506328E+08 -4.238117E+08 -3.355737E+08
       501   7 -3.917042E+09 -2.657077E+08 -1.657569E+08 -4.700093E+08  4.090040E+08  1.643749E+08
       501   8 -3.923449E+09 -1.172190E+08 -2.154339E+08 -3.540944E+08  3.477497E+08  4.271651E+06
       502   1 -1.740000E+09 -3.228507E+08 -2.775395E+08 -1.632122E+08 -5.806265E+08 -5.034145E+08
       502   2 -1.695177E+09 -2.185078E+08 -2.143452E+08 -1.865059E+08  1.732985E+08 -1.943135E+08
       502   3 -1.816066E+09 -3.360382E+08 -3.256055E+08 -1.477371E+08 -5.105431E+08 -5.568210E+08
       502   4 -1.768889E+09 -2.214421E+08 -2.604182E+08 -1.736609E+08  1.946329E+08 -2.534976E+08
       502   5 -3.220813E+08  5.764267E+07  2.619841E+08 -4.373257E+07 -5.768346E+08 -5.081047E+08
       502   6 -3.022813E+08  9.339113E+07  2.970933E+08 -4.997410E+07  1.770893E+08 -1.990161E+08
       502   7 -3.514547E+08  4.511751E+07  2.281245E+08 -3.958603E+07 -5.067620E+08 -5.615154E+08
       502   8 -3.317794E+08  8.285763E+07  2.620045E+08 -4.653231E+07  1.984127E+08 -2.582060E+08
       503   1  3.220813E+08 -5.764267E+07 -2.619841E+08  4.373257E+07 -5.768346E+08 -5.081047E+08
       503   2  3.022813E+08 -9.339113E+07 -2.970933E+08  4.997410E+07  1.770893E+08 -1.990161E+08
       503   3  3.514547E+08 -4.511751E+07 -2.281245E+08  3.958603E+07 -5.067621E+08 -5.615154E+08
       503   4  3.317794E+08 -8.285763E+07 -2.620045E+08  4.653231E+07  1.984127E+08 -2.582060E+08
       503   5  1.740000E+09  3.228507E+08  2.775395E+08  1.632122E+08 -5.806265E+08 -5.034145E+08
       503   6  1.695177E+09  2.185078E+08  2.143452E+08  1.865059E+08  1.732985E+08 -1.943135E+08
       503   7  1.816066E+09  3.360382E+08  3.256055E+08  1.477371E+08 -5.105431E+08 -5.568210E+08
       503   8  1.768889E+09  2.214421E+08  2.604182E+08  1.736609E+08  1.946329E+08 -2.534976E+08
       504   1  2.445946E+09  2.271320E+08 -2.802561E+08  2.762884E+08 -4.634247E+08 -2.880199E+08
       504   2  2.355736E+09  6.714501E+06 -3.803328E+08  2.990540E+08  4.083558E+08  1.374006E+08
       504   3  2.547398E+09  2.381218E+08 -1.630448E+08  2.310818E+08 -4.265776E+08 -3.607552E+08
       504   4  2.452495E+09 -3.726101E+06 -2.621359E+08  2.560720E+08  3.447099E+08 -2.393814E+07
       504   5  4.124444E+09  7.528672E+08  3.810140E+08  4.657387E+08 -4.629970E+08 -2.637389E+08
       504   6  3.917042E+09  2.657077E+08  1.657569E+08  4.700093E+08  4.090040E+08  1.643749E+08
       504   7  4.150539E+09  6.591696E+08  4.442119E+08  3.506328E+08 -4.238117E+08 -3.355737E+08
       504   8  3.923449E+09  1.172190E+08  2.154339E+08  3.540944E+08  3.477497E+08  4.271650E+06
       505   1 -3.204418E+09  2.860800E+08  3.161023E+08 -7.105590E+07 -1.005850E+09 -6.526730E+08
       505   2 -2.921214E+09  2.442566E+08  2.384140E+08 -6.088626E+07 -6.832633E+08 -5.440112E+08
       505   3 -3.097762E+09  2.098194E+08  5.984650E+08  5.996290E+07  1.897302E+08  1.255347E+08
       505   4 -2.900299E+09  5.289864E+07  3.114334E+08  8.707058E+07  3.382832E+08  3.131831E+08
       505   5 -5.138419E+09  2.151896E+08 -2.853651E+08 -1.547702E+08 -1.067463E+09 -6.471221E+08
       505   6 -4.620697E+09  3.216023E+08 -2.482270E+08 -8.067254E+07 -7.112916E+08 -5.178915E+08
       505   7 -4.955608E+09  2.605706E+08  5.633658E+07  4.842928E+07  1.328353E+08  1.694423E+08
       505   8 -4.509581E+09  2.701614E+08 -1.061726E+08  1.498679E+08  3.161937E+08  3.829413E+08
       506   1 -2.276472E+09 -6.143641E+07 -2.946274E+08 -3.187378E+07 -1.291073E+09 -1.087197E+09
       506   2 -2.275251E+09 -2.176084E+08 -2.311933E+08  5.062071E+07 -2.010051E+08 -5.226257E+08
       506   3 -2.074554E+09 -9.095151E+07 -2.811008E+08 -4.230767E+07 -8.743879E+08 -8.120470E+08
       506   4 -2.099962E+09 -2.981275E+08 -2.804620E+08  5.054237E+07  5.315690E+07 -5.399204E+07
       506   5 -4.381953E+08  1.553216E+08  3.218829E+08 -8.540554E+06 -1.265436E+09 -1.082510E+09
       506   6 -3.914451E+08  1.598986E+08  4.472006E+08  1.356378E+07 -1.764544E+08 -5.267680E+08
       506   7 -4.002224E+08  1.312822E+08  2.878687E+08 -1.133631E+07 -8.564818E+08 -8.120948E+08
       506   8 -3.772921E+08  1.055081E+08  3.574298E+08  1.354279E+07  6.969601E+07 -6.408470E+07
       507   1  4.381953E+08 -1.553216E+08 -3.218829E+08  8.540554E+06 -1.265436E+09 -1.082510E+09
       507   2  3.914451E+08 -1.598986E+08 -4.472006E+08 -1.356378E+07 -1.764544E+08 -5.267680E+08
       507   3  4.002224E+08 -1.312822E+08 -2.878687E+08  1.133631E+07 -8.564818E+08 -8.120948E+08
       507   4  3.772921E+08 -1.055081E+08 -3.574298E+08 -1.354279E+07  6.969601E+07 -6.408470E+07
       507   5  2.276472E+09  6.143641E+07  2.946274E+08  3.187378E+07 -1.291073E+09 -1.087197E+09
       507   6  2.275251E+09  2.176084E+08  2.311933E+08 -5.062071E+07 -2.010051E+08 -5.226257E+08
       507   7  2.074554E+09  9.095151E+07  2.811008E+08  4.230767E+07 -8.743879E+08 -8.120470E+08
       507   8  2.099962E+09  2.981275E+08  2.804620E+08 -5.054237E+07  5.315690E+07 -5.399205E+07
       508   1  3.204418E+09 -2.860800E+08 -3.161023E+08  7.105590E+07 -1.005850E+09 -6.526730E+08
       508   2  3.097762E+09 -2.098194E+08 -5.984650E+08 -5.996290E+07  1.897302E+08  1.255347E+08
       508   3  2.921214E+09 -2.442566E+08 -2.384140E+08  6.088626E+07 -6.832633E+08 -5.440112E+08
       508   4  2.900299E+09 -5.289864E+07 -3.114334E+08 -8.707058E+07  3.382832E+08  3.131831E+08
       508   5  5.138419E+09 -2.151896E+08  2.853651E+08  1.547702E+08 -1.067463E+09 -6.471221E+08
       508   6  4.955608E+09 -2.605706E+08 -5.633657E+07 -4.842928E+07  1.328353E+08  1.694423E+08
       508   7  4.620697E+09 -3.216023E+08  2.482270E+08  8.067254E+07 -7.112916E+08 -5.178915E+08
       508   8  4.509581E+09 -2.701614E+08  1.061726E+08 -1.498679E+08  3.161936E+08  3.829413E+08
       509   1 -2.598823E+09  1.477503E+08  2.697759E+08 -2.891342E+08  5.375662E+08 -4.598629E+08
       509   2 -2.614410E+09 -2.727110E+07  2.800448E+08 -3.670283E+08 -2.998283E+08  6.684597E+06
       509   3 -2.300708E+09  1.632316E+08  4.137907E+08 -2.752958E+08  4.830778E+08 -3.000864E+08
       509   4 -2.322720E+09 -5.036667E+07  4.038868E+08 -3.654042E+08 -2.069065E+08  2.770936E+08
       509   5 -4.226347E+09 -2.668716E+07 -2.708128E+08 -4.050842E+08  5.606032E+08 -4.884576E+08
       509   6 -4.217667E+09 -2.112263E+08 -2.561188E+08 -5.488642E+08 -2.766251E+08 -2.303149E+07
       509   7 -3.678471E+09  8.237879E+07 -2.379421E+07 -4.288089E+08  5.073444E+08 -3.294386E+08
       509   8 -3.666566E+09 -1.401161E+08 -2.619207E+07 -5.962679E+08 -1.824186E+08  2.464221E+08
       510   1 -1.828037E+09 -8.135360E+07 -2.103980E+08 -1.945611E+08  6.827203E+08 -6.177174E+08
       510   2 -1.675815E+09 -1.069533E+08 -1.517374E+08 -1.728035E+08  6.060296E+08 -4.044689E+08
       510   3 -1.851704E+09 -2.210091E+08 -2.137687E+08 -2.369746E+08 -8.361737E+07 -1.766899E+08
       510   4 -1.720368E+09 -2.902459E+08 -2.023181E+08 -2.215406E+08 -5.803034E+07  1.846597E+08
       510   5 -3.367580E+08  1.312644E+08  3.007711E+08 -5.213249E+07  6.677541E+08 -6.025344E+08
       510   6 -2.872389E+08  1.331364E+08  3.368624E+08 -4.630256E+07  5.986061E+08 -3.939329E+08
       510   7 -3.238300E+08  1.131134E+08  3.448304E+08 -6.349714E+07 -9.756374E+07 -1.683856E+08
       510   8 -2.916706E+08  9.152938E+07  3.408236E+08 -5.936162E+07 -6.409651E+07  1.871034E+08
       511   1  3.367580E+08 -1.312644E+08 -3.007711E+08  5.213249E+07  6.677541E+08 -6.025344E+08
       511   2  2.872389E+08 -1.331364E+08 -3.368624E+08  4.630256E+07  5.986061E+08 -3.939329E+08
       511   3  3.238300E+08 -1.131134E+08 -3.448304E+08  6.349714E+07 -9.756374E+07 -1.683856E+08
       511   4  2.916706E+08 -9.152938E+07 -3.408236E+08  5.936162E+07 -6.409651E+07  1.871034E+08
       511   5  1.828037E+09  8.135360E+07  2.103980E+08  1.945611E+08  6.827203E+08 -6.177174E+08
       511   6  1.675815E+09  1.069533E+08  1.517374E+08  1.728035E+08  6.060296E+08 -4.044689E+08
       511   7  1.851704E+09  2.210091E+08  2.137687E+08  2.369746E+08 -8.361737E+07 -1.766899E+08
       511   8  1.720368E+09  2.902459E+08  2.023181E+08  2.215406E+08 -5.803034E+07  1.846597E+08
       512   1  2.598823E+09 -1.477503E+08 -2.697759E+08  2.891342E+08  5.375662E+08 -4.598629E+08
       512   2  2.300708E+09 -1.632316E+08 -4.137907E+08  2.752958E+08  4.830778E+08 -3.000864E+08
       512   3  2.614410E+09  2.727110E+07 -2.800448E+08  3.670283E+08 -2.998283E+08  6.684597E+06
       512   4  2.322720E+09  5.036667E+07 -4.038868E+08  3.654042E+08 -2.069065E+08  2.770936E+08
       512   5  4.226347E+09  2.668716E+07  2.708128E+08  4.050842E+08  5.606032E+08 -4.884576E+08
       512   6  3.678471E+09 -8.237879E+07  2.379421E+07  4.288089E+08  5.073444E+08 -3.294386E+08
       512   7  4.217667E+09  2.112263E+08  2.561188E+08  5.488642E+08 -2.766251E+08 -2.303149E+07
       512   8  3.666566E+09  1.401161E+08  2.619207E+07  5.962679E+08 -1.824186E+08  2.464221E+08
       513   1 -2.346177E+09 -8.957076E+06  2.734971E+08 -1.175158E+08 -2.946628E+08  4.945839E+07
       513   2 -2.075784E+09  1.453930E+08  4.476549E+08 -1.674739E+08 -2.057934E+08  2.821284E+07
       513   3 -2.387971E+09 -6.684521E+07  2.425784E+08 -5.685598E+07  3.966946E+08 -2.650989E+08
       513   4 -2.136016E+09  6.831988E+07  3.900310E+08 -9.712006E+07  3.700970E+08 -3.004854E+08
       513   5 -3.790300E+09 -2.402596E+08 -2.291306E+08 -1.679277E+08 -2.929699E+08  3.508437E+07
       513   6 -3.370961E+09  1.517660E+07  2.003676E+07 -2.621619E+08 -1.986966E+08  1.101856E+07
       513   7 -3.877123E+09 -3.814855E+08 -2.985594E+08 -7.189854E+07  3.979109E+08 -2.746247E+08
       513   8 -3.484998E+09 -1.590108E+08 -8.286288E+07 -1.505725E+08  3.765704E+08 -3.120732E+08
       514   1 -1.682975E+09 -1.897791E+08 -2.213379E+08 -7.812912E+07 -1.793987E+08 -1.084740E+08
       514   2 -1.710721E+09 -2.191592E+08 -2.527655E+08 -4.049848E+07  4.700158E+08 -4.308491E+08
       514   3 -1.515107E+09 -9.961533E+07 -1.112077E+08 -1.047485E+08 -9.534003E+07 -9.633446E+07
       514   4 -1.544927E+09 -1.302153E+08 -1.385648E+08 -6.116579E+07  4.517148E+08 -4.563408E+08
       514   5 -3.071510E+08  9.294969E+07  2.762280E+08 -2.093463E+07 -1.845384E+08 -9.634648E+07
       514   6 -3.206206E+08  7.904215E+07  2.537250E+08 -1.085154E+07  4.647939E+08 -4.178848E+08
       514   7 -2.483517E+08  1.309281E+08  3.379819E+08 -2.806727E+07 -9.954705E+07 -8.469368E+07
       514   8 -2.602406E+08  1.188303E+08  3.215549E+08 -1.638932E+07  4.474002E+08 -4.437324E+08
       515   1  3.071510E+08 -9.294969E+07 -2.762280E+08  2.093463E+07 -1.845384E+08 -9.634648E+07
       515   2  3.206206E+08 -7.904215E+07 -2.537250E+08  1.085154E+07  4.647939E+08 -4.178848E+08
       515   3  2.483517E+08 -1.309281E+08 -3.379819E+08  2.806727E+07 -9.954705E+07 -8.469368E+07
       515   4  2.602406E+08 -1.188303E+08 -3.215549E+08  1.638932E+07  4.474002E+08 -4.437324E+08
       515   5  1.682975E+09  1.897791E+08  2.213379E+08  7.812912E+07 -1.793987E+08 -1.084740E+08
       515   6  1.710721E+09  2.191592E+08  2.527655E+08  4.049848E+07  4.700158E+08 -4.308491E+08
       515   7  1.515107E+09  9.961533E+07  1.112077E+08  1.047485E+08 -9.534003E+07 -9.633446E+07
       515   8  1.544927E+09  1.302153E+08  1.385648E+08  6.116579E+07  4.517148E+08 -4.563408E+08
       516   1  2.346177E+09  8.957075E+06 -2.734971E+08  1.175158E+08 -2.946628E+08  4.945839E+07
       516   2  2.387971E+09  6.684521E+07 -2.425784E+08  5.685598E+07  3.966946E+08 -2.650989E+08
       516   3  2.075784E+09 -1.453930E+08 -4.476549E+08  1.674739E+08 -2.057934E+08  2.821284E+07
       516   4  2.136016E+09 -6.831988E+07 -3.900310E+08  9.712006E+07  3.700970E+08 -3.004854E+08
       516   5  3.790300E+09  2.402596E+08  2.291306E+08  1.679277E+08 -2.929699E+08  3.508437E+07
       516   6  3.877123E+09  3.814855E+08  2.985594E+08  7.189854E+07  3.979109E+08 -2.746247E+08
       516   7  3.370961E+09 -1.517660E+07 -2.003676E+07  2.621619E+08 -1.986966E+08  1.101856E+07
       516   8  3.484998E+09  1.590108E+08  8.286288E+07  1.505725E+08  3.765704E+08 -3.120732E+08
       517   1 -2.126361E+09  6.035666E+05  3.373395E+08 -4.285166E+07 -2.754941E+08 -3.587505E+07
       517   2 -1.940310E+09  1.099499E+08  4.528228E+08 -8.086494E+07 -2.078823E+08 -1.347011E+08
       517   3 -2.172694E+09 -8.637306E+07  2.875519E+08 -7.960241E+04  3.232930E+08 -1.764670E+08
       517   4 -1.991777E+09  1.252859E+07  4.016151E+08 -3.169020E+07  2.998494E+08 -2.757177E+08
       517   5 -3.450907E+09 -2.754251E+08 -1.428328E+08 -6.200573E+07 -2.723773E+08 -4.456635E+07
       517   6 -3.203188E+09 -1.282995E+08  2.484728E+06 -1.181278E+08 -2.053573E+08 -1.432167E+08
       517   7 -3.518074E+09 -4.062715E+08 -2.120319E+08 -4.092373E+06  3.264363E+08 -1.856990E+08
       517   8 -3.278904E+09 -2.761493E+08 -7.112638E+07 -5.151336E+07  3.024088E+08 -2.848529E+08
       518   1 -1.553297E+09 -1.784937E+08 -1.988570E+08 -2.826674E+07 -2.248514E+08 -2.112629E+08
       518   2 -1.579821E+09 -2.304229E+08 -2.231794E+08  1.095607E+06  3.515230E+08 -3.695658E+08
       518   3 -1.413921E+09 -9.271643E+07 -9.202018E+07 -5.301929E+07 -1.445491E+08 -3.094484E+08
       518   4 -1.445525E+09 -1.530066E+08 -1.213048E+08 -1.927082E+07  3.351729E+08 -4.684275E+08
       518   5 -2.807695E+08  8.760785E+07  2.627316E+08 -7.574050E+06 -2.256348E+08 -1.996717E+08
       518   6 -2.882087E+08  7.336133E+07  2.554395E+08  2.935669E+05  3.507576E+08 -3.583437E+08
       518   7 -2.268299E+08  1.271858E+08  3.300778E+08 -1.420648E+07 -1.457366E+08 -2.977372E+08
       518   8 -2.360231E+08  1.103062E+08  3.205397E+08 -5.163600E+06  3.340089E+08 -4.571394E+08
       519   1  2.807695E+08 -8.760785E+07 -2.627316E+08  7.574050E+06 -2.256348E+08 -1.996717E+08
       519   2  2.882087E+08 -7.336133E+07 -2.554395E+08 -2.935669E+05  3.507576E+08 -3.583437E+08
       519   3  2.268299E+08 -1.271858E+08 -3.300778E+08  1.420648E+07 -1.457366E+08 -2.977372E+08
       519   4  2.360231E+08 -1.103062E+08 -3.205397E+08  5.163600E+06  3.340089E+08 -4.571394E+08
       519   5  1.553297E+09  1.784937E+08  1.988570E+08  2.826674E+07 -2.248514E+08 -2.112629E+08
       519   6  1.579821E+09  2.304229E+08  2.231794E+08 -1.095607E+06  3.515230E+08 -3.695658E+08
       519   7  1.413921E+09  9.271643E+07  9.202018E+07  5.301929E+07 -1.445491E+08 -3.094484E+08
       519   8  1.445525E+09  1.530066E+08  1.213048E+08  1.927082E+07  3.351729E+08 -4.684275E+08
       520   1  2.126361E+09 -6.035672E+05 -3.373395E+08  4.285166E+07 -2.754941E+08 -3.587506E+07
       520   2  2.172694E+09  8.637306E+07 -2.875519E+08  7.960240E+04  3.232930E+08 -1.764670E+08
       520   3  1.940310E+09 -1.099499E+08 -4.528228E+08  8.086494E+07 -2.078823E+08 -1.347011E+08
       520   4  1.991777E+09 -1.252859E+07 -4.016151E+08  3.169020E+07  2.998494E+08 -2.757177E+08
       520   5  3.450907E+09  2.754251E+08  1.428328E+08  6.200573E+07 -2.723773E+08 -4.456635E+07
       520   6  3.518074E+09  4.062715E+08  2.120319E+08  4.092373E+06  3.264363E+08 -1.856990E+08
       520   7  3.203188E+09  1.282995E+08 -2.484726E+06  1.181278E+08 -2.053573E+08 -1.432167E+08
       520   8  3.278904E+09  2.761493E+08  7.112638E+07  5.151336E+07  3.024088E+08 -2.848529E+08
       521   1 -2.063966E+09 -5.102481E+07  3.272404E+08 -1.618649E+07 -2.859068E+08 -1.060948E+08
       521   2 -1.922415E+09  2.000241E+07  4.223213E+08 -1.884819E+07 -2.437237E+08 -2.207484E+08
       521   3 -2.064169E+09 -5.161536E+07  3.271421E+08  1.638034E+07  2.864093E+08 -1.081540E+08
       521   4 -1.922665E+09  1.931213E+07  4.221752E+08  1.836541E+07  2.438596E+08 -2.229578E+08
       521   5 -3.362542E+09 -3.608464E+08 -1.552788E+08 -2.120303E+07 -2.859455E+08 -1.151486E+08
       521   6 -3.183143E+09 -2.735747E+08 -4.397003E+07 -2.473522E+07 -2.437664E+08 -2.298019E+08
       521   7 -3.362908E+09 -3.618197E+08 -1.555409E+08  2.134386E+07  2.863706E+08 -1.172115E+08
       521   8 -3.183579E+09 -2.747029E+08 -4.430373E+07  2.388242E+07  2.438169E+08 -2.320155E+08
       522   1 -1.506135E+09 -2.040070E+08 -1.934287E+08 -1.131774E+07 -2.734343E+08 -3.058879E+08
       522   2 -1.506299E+09 -2.044131E+08 -1.935778E+08  1.148592E+07  2.742872E+08 -3.080592E+08
       522   3 -1.397729E+09 -1.449846E+08 -1.051719E+08 -1.316566E+07 -2.284129E+08 -4.202424E+08
       522   4 -1.397909E+09 -1.454398E+08 -1.053198E+08  1.289172E+07  2.287207E+08 -4.225777E+08
       522   5 -2.685829E+08  8.032127E+07  2.631354E+08 -3.032579E+06 -2.734278E+08 -2.948877E+08
       522   6 -2.686175E+08  8.022170E+07  2.631171E+08  3.077644E+06  2.742937E+08 -2.970526E+08
       522   7 -2.234748E+08  1.121970E+08  3.242588E+08 -3.527727E+06 -2.283994E+08 -4.092427E+08
       522   8 -2.235051E+08  1.120930E+08  3.242612E+08  3.454326E+06  2.287342E+08 -4.115706E+08
       523   1  2.685829E+08 -8.032127E+07 -2.631354E+08  3.032579E+06 -2.734278E+08 -2.948877E+08
       523   2  2.686175E+08 -8.022170E+07 -2.631171E+08 -3.077644E+06  2.742937E+08 -2.970526E+08
       523   3  2.234748E+08 -1.121970E+08 -3.242588E+08  3.527727E+06 -2.283994E+08 -4.092427E+08
       523   4  2.235051E+08 -1.120930E+08 -3.242612E+08 -3.454326E+06  2.287342E+08 -4.115706E+08
       523   5  1.506135E+09  2.040070E+08  1.934287E+08  1.131774E+07 -2.734343E+08 -3.058879E+08
       523   6  1.506299E+09  2.044131E+08  1.935778E+08 -1.148592E+07  2.742872E+08 -3.080592E+08
       523   7  1.397729E+09  1.449846E+08  1.051719E+08  1.316566E+07 -2.284129E+08 -4.202424E+08
       523   8  1.397909E+09  1.454398E+08  1.053198E+08 -1.289172E+07  2.287207E+08 -4.225777E+08
       524   1  2.063966E+09  5.102481E+07 -3.272404E+08  1.618649E+07 -2.859068E+08 -1.060948E+08
       524   2  2.064169E+09  5.161536E+07 -3.271421E+08 -1.638034E+07  2.864093E+08 -1.081540E+08
       524   3  1.922415E+09 -2.000241E+07 -4.223213E+08  1.884819E+07 -2.437237E+08 -2.207484E+08
       524   4  1.922665E+09 -1.931213E+07 -4.221752E+08 -1.836541E+07  2.438596E+08 -2.229578E+08
       524   5  3.362542E+09  3.608464E+08  1.552788E+08  2.120303E+07 -2.859455E+08 -1.151486E+08
       524   6  3.362908E+09  3.618197E+08  1.555409E+08 -2.134386E+07  2.863706E+08 -1.172115E+08
       524   7  3.183143E+09  2.735747E+08  4.397003E+07  2.473522E+07 -2.437664E+08 -2.298019E+08
       524   8  3.183579E+09  2.747029E+08  4.430373E+07 -2.388242E+07  2.438169E+08 -2.320155E+08
       525   1 -2.171029E+09 -8.583500E+07  2.885476E+08  5.938917E+05 -3.227866E+08 -1.738289E+08
       525   2 -1.991836E+09  1.171318E+07  4.016266E+08  3.159250E+07 -2.995654E+08 -2.743955E+08
       525   3 -2.124918E+09  5.384655E+05  3.383427E+08  4.300214E+07  2.760641E+08 -3.720795E+07
       525   4 -1.940717E+09  1.083802E+08  4.526085E+08  8.037461E+07  2.079776E+08 -1.376981E+08
       525   5 -3.515924E+09 -4.059993E+08 -2.109701E+08  4.686985E+06 -3.259961E+08 -1.830306E+08
       525   6 -3.279158E+09 -2.778508E+08 -7.143942E+07  5.122941E+07 -3.021554E+08 -2.834989E+08
       525   7 -3.449178E+09 -2.761823E+08 -1.419516E+08  6.209960E+07  2.728827E+08 -4.583585E+07
       525   8 -3.204011E+09 -1.312188E+08  1.740544E+06  1.173025E+08  2.054241E+08 -1.461437E+08
       526   1 -1.578788E+09 -2.300610E+08 -2.227378E+08 -7.131865E+05 -3.506931E+08 -3.672263E+08
       526   2 -1.552520E+09 -1.786239E+08 -1.986809E+08  2.840176E+07  2.257061E+08 -2.131469E+08
       526   3 -1.445592E+09 -1.534713E+08 -1.213826E+08  1.924753E+07 -3.347317E+08 -4.674327E+08
       526   4 -1.414234E+09 -9.367748E+07 -9.229918E+07  5.272929E+07  1.448358E+08 -3.130354E+08
       526   5 -2.879222E+08  7.346801E+07  2.555805E+08 -1.910978E+05 -3.499385E+08 -3.559954E+08
       526   6 -2.805689E+08  8.756540E+07  2.627612E+08  7.610228E+06  2.264796E+08 -2.015301E+08
       526   7 -2.360065E+08  1.102162E+08  3.205994E+08  5.157360E+06 -3.335605E+08 -4.561357E+08
       526   8 -2.268702E+08  1.269719E+08  3.301048E+08  1.412877E+07  1.460315E+08 -3.012960E+08
       527   1  2.879222E+08 -7.346801E+07 -2.555805E+08  1.910978E+05 -3.499385E+08 -3.559954E+08
       527   2  2.805689E+08 -8.756540E+07 -2.627612E+08 -7.610228E+06  2.264796E+08 -2.015301E+08
       527   3  2.360065E+08 -1.102162E+08 -3.205994E+08 -5.157360E+06 -3.335605E+08 -4.561357E+08
       527   4  2.268702E+08 -1.269719E+08 -3.301048E+08 -1.412877E+07  1.460315E+08 -3.012960E+08
       527   5  1.578788E+09  2.300610E+08  2.227378E+08  7.131866E+05 -3.506931E+08 -3.672263E+08
       527   6  1.552520E+09  1.786239E+08  1.986809E+08 -2.840176E+07  2.257061E+08 -2.131469E+08
       527   7  1.445592E+09  1.534713E+08  1.213826E+08 -1.924753E+07 -3.347317E+08 -4.674327E+08
       527   8  1.414234E+09  9.367748E+07  9.229918E+07 -5.272929E+07  1.448358E+08 -3.130354E+08
       528   1  2.171029E+09  8.583500E+07 -2.885476E+08 -5.938917E+05 -3.227866E+08 -1.738289E+08
       528   2  2.124918E+09 -5.384661E+05 -3.383427E+08 -4.300214E+07  2.760641E+08 -3.720795E+07
       528   3  1.991836E+09 -1.171318E+07 -4.016266E+08 -3.159250E+07 -2.995654E+08 -2.743955E+08
       528   4  1.940717E+09 -1.083802E+08 -4.526085E+08 -8.037461E+07  2.079776E+08 -1.376981E+08
       528   5  3.515924E+09  4.059993E+08  2.109702E+08 -4.686985E+06 -3.259961E+08 -1.830306E+08
       528   6  3.449178E+09  2.761823E+08  1.419516E+08 -6.209960E+07  2.728827E+08 -4.583585E+07
       528   7  3.279158E+09  2.778508E+08  7.143942E+07 -5.122941E+07 -3.021554E+08 -2.834989E+08
       528   8  3.204011E+09  1.312188E+08 -1.740543E+06 -1.173025E+08  2.054241E+08 -1.461437E+08
       529   1 -2.386419E+09 -6.731205E+07  2.434048E+08  5.689174E+07 -3.966980E+08 -2.621633E+08
       529   2 -2.135941E+09  6.726437E+07  3.900082E+08  9.696512E+07 -3.698244E+08 -3.000951E+08
       529   3 -2.344598E+09 -8.685448E+06  2.740557E+08  1.172412E+08  2.952593E+08  4.947574E+07
       529   4 -2.075501E+09  1.453847E+08  4.476115E+08  1.670543E+08  2.059979E+08  2.551320E+07
       529   5 -3.875208E+09 -3.825701E+08 -2.978094E+08  7.211108E+07 -3.977618E+08 -2.715555E+08
       529   6 -3.485464E+09 -1.613761E+08 -8.344088E+07  1.503889E+08 -3.761509E+08 -3.115217E+08
       529   7 -3.788310E+09 -2.403368E+08 -2.285533E+08  1.676567E+08  2.937191E+08  3.522732E+07
       529   8 -3.371089E+09  1.429406E+07  1.960773E+07  2.615691E+08  1.990465E+08  8.463890E+06
       530   1 -1.709873E+09 -2.196204E+08 -2.527247E+08  4.047566E+07 -4.699042E+08 -4.285491E+08
       530   2 -1.681960E+09 -1.895760E+08 -2.211636E+08  7.791156E+07  1.799341E+08 -1.089710E+08
       530   3 -1.544782E+09 -1.307389E+08 -1.385841E+08  6.105187E+07 -4.513573E+08 -4.566675E+08
       530   4 -1.514680E+09 -9.928492E+07 -1.109331E+08  1.044675E+08  9.550451E+07 -9.972489E+07
       530   5 -3.204251E+08  7.888680E+07  2.536617E+08  1.084542E+07 -4.647237E+08 -4.155832E+08
       530   6 -3.069598E+08  9.292342E+07  2.760864E+08  2.087634E+07  1.850349E+08 -9.681822E+07
       530   7 -2.601619E+08  1.187297E+08  3.216425E+08  1.635880E+07 -4.470580E+08 -4.440422E+08
       530   8 -2.482174E+08  1.310367E+08  3.381024E+08  2.799199E+07  9.969926E+07 -8.804102E+07
       531   1  3.204251E+08 -7.888680E+07 -2.536617E+08 -1.084542E+07 -4.647237E+08 -4.155832E+08
       531   2  3.069598E+08 -9.292342E+07 -2.760864E+08 -2.087634E+07  1.850349E+08 -9.681822E+07
       531   3  2.601619E+08 -1.187297E+08 -3.216425E+08 -1.635880E+07 -4.470580E+08 -4.440422E+08
       531   4  2.482174E+08 -1.310367E+08 -3.381024E+08 -2.799199E+07  9.969926E+07 -8.804102E+07
       531   5  1.709873E+09  2.196204E+08  2.527247E+08 -4.047566E+07 -4.699042E+08 -4.285491E+08
       531   6  1.681960E+09  1.895760E+08  2.211636E+08 -7.791156E+07  1.799341E+08 -1.089710E+08
       531   7  1.544782E+09  1.307389E+08  1.385841E+08 -6.105187E+07 -4.513573E+08 -4.566675E+08
       531   8  1.514680E+09  9.928492E+07  1.109331E+08 -1.044675E+08  9.550451E+07 -9.972489E+07
       532   1  2.386419E+09  6.731205E+07 -2.434048E+08 -5.689174E+07 -3.966980E+08 -2.621633E+08
       532   2  2.344598E+09  8.685447E+06 -2.740557E+08 -1.172412E+08  2.952593E+08  4.947574E+07
       532   3  2.135941E+09 -6.726437E+07 -3.900082E+08 -9.696512E+07 -3.698244E+08 -3.000951E+08
       532   4  2.075501E+09 -1.453847E+08 -4.476115E+08 -1.670543E+08  2.059978E+08  2.551320E+07
       532   5  3.875208E+09  3.825701E+08  2.978094E+08 -7.211108E+07 -3.977618E+08 -2.715555E+08
       532   6  3.788310E+09  2.403368E+08  2.285533E+08 -1.676567E+08  2.937191E+08  3.522732E+07
       532   7  3.485464E+09  1.613761E+08  8.344088E+07 -1.503889E+08 -3.761509E+08 -3.115217E+08
       532   8  3.371089E+09 -1.429406E+07 -1.960773E+07 -2.615691E+08  1.990465E+08  8.463889E+06
       533   1 -2.597184E+09  1.463060E+08  2.695528E+08  2.891386E+08 -5.386502E+08 -4.576195E+08
       533   2 -2.299437E+09  1.630691E+08  4.137822E+08  2.752996E+08 -4.835942E+08 -3.002443E+08
       533   3 -2.612640E+09 -2.768103E+07  2.798907E+08  3.669180E+08  2.994585E+08  7.165004E+06
       533   4 -2.321239E+09 -4.977274E+07  4.039774E+08  3.654683E+08  2.064107E+08  2.765497E+08
       533   5 -4.222502E+09 -2.792075E+07 -2.703106E+08  4.057421E+08 -5.615128E+08 -4.860198E+08
       533   6 -3.676350E+09  8.217060E+07 -2.356148E+07  4.291291E+08 -5.077518E+08 -3.294386E+08
       533   7 -4.213795E+09 -2.111015E+08 -2.554818E+08  5.490939E+08  2.764213E+08 -2.241749E+07
       533   8 -3.664209E+09 -1.391770E+08 -2.573487E+07  5.964626E+08  1.820195E+08  2.459613E+08
       534   1 -1.827374E+09 -8.254548E+07 -2.107647E+08  1.943758E+08 -6.838231E+08 -6.157937E+08
       534   2 -1.850740E+09 -2.213112E+08 -2.137089E+08  2.367894E+08  8.353224E+07 -1.759950E+08
       534   3 -1.674908E+09 -1.069177E+08 -1.514626E+08  1.727152E+08 -6.066071E+08 -4.051741E+08
       534   4 -1.719276E+09 -2.897007E+08 -2.019408E+08  2.215534E+08  5.753448E+07  1.840069E+08
       534   5 -3.366682E+08  1.308571E+08  3.004677E+08  5.208285E+07 -6.688816E+08 -6.006135E+08
       534   6 -3.236303E+08  1.129738E+08  3.447095E+08  6.344754E+07  9.745473E+07 -1.677123E+08
       534   7 -2.869991E+08  1.331424E+08  3.369280E+08  4.627889E+07 -5.992219E+08 -3.946266E+08
       534   8 -2.914262E+08  9.162746E+07  3.408127E+08  5.936505E+07  6.355676E+07  1.864206E+08
       535   1  3.366682E+08 -1.308571E+08 -3.004677E+08 -5.208285E+07 -6.688816E+08 -6.006135E+08
       535   2  3.236303E+08 -1.129738E+08 -3.447094E+08 -6.344754E+07  9.745473E+07 -1.677123E+08
       535   3  2.869991E+08 -1.331424E+08 -3.369280E+08 -4.627889E+07 -5.992219E+08 -3.946266E+08
       535   4  2.914262E+08 -9.162746E+07 -3.408127E+08 -5.936505E+07  6.355676E+07  1.864206E+08
       535   5  1.827374E+09  8.254548E+07  2.107647E+08 -1.943758E+08 -6.838231E+08 -6.157937E+08
       535   6  1.850740E+09  2.213112E+08  2.137089E+08 -2.367894E+08  8.353224E+07 -1.759950E+08
       535   7  1.674908E+09  1.069177E+08  1.514626E+08 -1.727152E+08 -6.066071E+08 -4.051741E+08
       535   8  1.719276E+09  2.897007E+08  2.019408E+08 -2.215534E+08  5.753448E+07  1.840069E+08
       536   1  2.597184E+09 -1.463060E+08 -2.695528E+08 -2.891386E+08 -5.386502E+08 -4.576195E+08
       536   2  2.612640E+09  2.768103E+07 -2.798907E+08 -3.669180E+08  2.994585E+08  7.165003E+06
       536   3  2.299437E+09 -1.630691E+08 -4.137822E+08 -2.752996E+08 -4.835942E+08 -3.002443E+08
       536   4  2.321239E+09  4.977274E+07 -4.039774E+08 -3.654683E+08  2.064107E+08  2.765497E+08
       536   5  4.222502E+09  2.792075E+07  2.703106E+08 -4.057421E+08 -5.615128E+08 -4.860198E+08
       536   6  4.213795E+09  2.111015E+08  2.554818E+08 -5.490939E+08  2.764213E+08 -2.241749E+07
       536   7  3.676350E+09 -8.217060E+07  2.356148E+07 -4.291291E+08 -5.077518E+08 -3.294386E+08
       536   8  3.664209E+09  1.391770E+08  2.573487E+07 -5.964626E+08  1.820195E+08  2.459613E+08
       537   1 -3.290678E+08 -1.963941E+09  8.110860E+08  1.161914E+09 -2.926968E+08 -2.182220E+08
       537   2 -1.502630E+09 -5.640478E+09  4.172603E+08  6.588289E+08 -7.095225E+08 -4.759241E+08
       537   3 -1.007978E+09 -3.304458E+09  2.431489E+08  2.392600E+09  7.571050E+08 -3.573335E+08
       537   4 -1.777253E+09 -6.369634E+09  6.022516E+08  1.943349E+09  4.302643E+08  1.704561E+08
       537   5 -6.000504E+08 -3.378195E+09  3.055149E+08  2.000593E+09  1.068839E+08 -3.552275E+08
       537   6 -2.659339E+09 -9.044763E+09 -9.510377E+08  1.222592E+09 -3.648040E+08 -7.371826E+08
       537   7 -1.443764E+09 -5.274766E+09 -4.786791E+08  3.780226E+09  1.279428E+09 -5.317919E+08
       537   8 -3.024866E+09 -1.016560E+10 -9.108236E+08  3.084370E+09  9.034926E+08 -1.180171E+08
       538   1 -6.047405E+08 -1.564090E+09 -2.023950E+08  6.742669E+08 -4.136132E+08 -4.609452E+08
       538   2 -1.008978E+09 -2.377176E+09 -3.927529E+08  1.486411E+09  8.237188E+08 -6.224456E+08
       538   3 -1.596770E+09 -4.211368E+09 -1.015646E+09  3.568577E+08 -8.467989E+08 -8.160278E+08
       538   4 -1.848042E+09 -4.734291E+09 -9.701165E+08  1.203287E+09  4.115760E+08 -1.786130E+08
       538   5  2.727463E+07 -2.297824E+08  3.875020E+08  1.806693E+08 -4.929595E+08 -3.671541E+08
       538   6 -7.199456E+06 -3.738070E+08  5.087913E+08  3.982827E+08  7.167397E+08 -5.202227E+08
       538   7 -1.209006E+08 -8.214800E+08  4.440812E+08  9.561972E+07 -9.137941E+08 -6.942635E+08
       538   8 -7.090857E+07 -8.442768E+08  7.300280E+08  3.224197E+08  3.156494E+08 -5.072197E+07
       539   1 -2.727463E+07  2.297824E+08 -3.875020E+08 -1.806693E+08 -4.929595E+08 -3.671541E+08
       539   2  7.199455E+06  3.738070E+08 -5.087913E+08 -3.982827E+08  7.167397E+08 -5.202227E+08
       539   3  1.209006E+08  8.214800E+08 -4.440812E+08 -9.561972E+07 -9.137941E+08 -6.942635E+08
       539   4  7.090857E+07  8.442768E+08 -7.300280E+08 -3.224197E+08  3.156494E+08 -5.072197E+07
       539   5  6.047405E+08  1.564090E+09  2.023950E+08 -6.742669E+08 -4.136132E+08 -4.609452E+08
       539   6  1.008978E+09  2.377176E+09  3.927529E+08 -1.486411E+09  8.237188E+08 -6.224456E+08
       539   7  1.596770E+09  4.211368E+09  1.015646E+09 -3.568577E+08 -8.467989E+08 -8.160278E+08
       539   8  1.848042E+09  4.734291E+09  9.701165E+08 -1.203287E+09  4.115760E+08 -1.786130E+08
       540   1  3.290678E+08  1.963941E+09 -8.110860E+08 -1.161914E+09 -2.926968E+08 -2.182220E+08
       540   2  1.007978E+09  3.304458E+09 -2.431489E+08 -2.392600E+09  7.571050E+08 -3.573335E+08
       540   3  1.502630E+09  5.640478E+09 -4.172603E+08 -6.588289E+08 -7.095225E+08 -4.759241E+08
       540   4  1.777253E+09  6.369634E+09 -6.022516E+08 -1.943349E+09  4.302643E+08  1.704561E+08
       540   5  6.000504E+08  3.378195E+09 -3.055149E+08 -2.000593E+09  1.068839E+08 -3.552275E+08
       540   6  1.443764E+09  5.274766E+09  4.786791E+08 -3.780226E+09  1.279428E+09 -5.317919E+08
       540   7  2.659339E+09  9.044763E+09  9.510377E+08 -1.222592E+09 -3.648040E+08 -7.371826E+08
       540   8  3.024866E+09  1.016560E+10  9.108236E+08 -3.084370E+09  9.034926E+08 -1.180171E+08
       541   1  3.689308E+08 -3.627020E+09  1.938500E+08  1.268726E+09 -4.170473E+08  1.957243E+08
       541   2 -4.865310E+07 -3.536795E+09 -7.617916E+08  6.542610E+08 -3.326269E+08 -4.552592E+08
       541   3 -3.579396E+07 -4.973613E+09  3.760061E+08  9.994987E+08 -5.003782E+08  3.795665E+08
       541   4 -8.414371E+08 -5.369951E+09 -1.359986E+09  3.480129E+08 -4.786182E+08 -6.683690E+08
       541   5 -1.450373E+07 -6.263556E+09 -7.121410E+08  1.904579E+09 -2.624395E+08 -1.926803E+08
       541   6 -3.880313E+08 -5.821972E+09 -1.549158E+09  9.201291E+08 -3.857629E+08 -7.802740E+08
       541   7 -9.098263E+08 -8.667711E+09 -9.944329E+08  1.472622E+09 -4.186228E+08 -1.703851E+08
       541   8 -1.725294E+09 -8.825848E+09 -2.661912E+09  4.287904E+08 -6.151083E+08 -1.172103E+09
       542   1  4.355754E+07 -2.457535E+09 -4.211381E+08  8.170574E+08 -5.164465E+08  1.282457E+08
       542   2 -3.463628E+08 -3.426615E+09 -6.388787E+08  6.517009E+08 -5.791079E+08  2.611362E+08
       542   3 -3.635326E+07 -2.225660E+09 -5.974005E+08  4.392499E+08 -3.157231E+08 -3.715360E+08
       542   4 -5.613230E+08 -3.390366E+09 -1.053404E+09  2.511507E+08 -4.265430E+08 -5.354272E+08
       542   5  1.396627E+08 -5.305032E+08  1.858032E+08  2.189299E+08 -5.592716E+08  2.296024E+08
       542   6  1.154108E+08 -7.099404E+08  3.146559E+08  1.746227E+08 -6.023879E+08  4.058334E+08
       542   7  2.455439E+07 -5.620686E+08 -8.005083E+07  1.176967E+08 -3.028138E+08 -2.871859E+08
       542   8 -9.461410E+07 -8.526538E+08 -1.520774E+08  6.729562E+07 -3.912711E+08 -4.031296E+08
       543   1 -1.396627E+08  5.305032E+08 -1.858032E+08 -2.189299E+08 -5.592716E+08  2.296024E+08
       543   2 -1.154108E+08  7.099404E+08 -3.146559E+08 -1.746227E+08 -6.023879E+08  4.058334E+08
       543   3 -2.455439E+07  5.620686E+08  8.005083E+07 -1.176967E+08 -3.028138E+08 -2.871859E+08
       543   4  9.461410E+07  8.526537E+08  1.520774E+08 -6.729562E+07 -3.912711E+08 -4.031296E+08
       543   5 -4.355754E+07  2.457535E+09  4.211381E+08 -8.170574E+08 -5.164465E+08  1.282457E+08
       543   6  3.463628E+08  3.426615E+09  6.388786E+08 -6.517009E+08 -5.791079E+08  2.611362E+08
       543   7  3.635326E+07  2.225660E+09  5.974005E+08 -4.392499E+08 -3.157231E+08 -3.715360E+08
       543   8  5.613230E+08  3.390366E+09  1.053404E+09 -2.511507E+08 -4.265430E+08 -5.354272E+08
       544   1 -3.689308E+08  3.627020E+09 -1.938500E+08 -1.268726E+09 -4.170473E+08  1.957243E+08
       544   2  3.579396E+07  4.973613E+09 -3.760061E+08 -9.994987E+08 -5.003782E+08  3.795665E+08
       544   3  4.865310E+07  3.536795E+09  7.617916E+08 -6.542610E+08 -3.326269E+08 -4.552592E+08
       544   4  8.414371E+08  5.369951E+09  1.359986E+09 -3.480129E+08 -4.786182E+08 -6.683690E+08
       544   5  1.450373E+07  6.263556E+09  7.121410E+08 -1.904579E+09 -2.624395E+08 -1.926803E+08
       544   6  9.098263E+08  8.667711E+09  9.944329E+08 -1.472622E+09 -4.186228E+08 -1.703851E+08
       544   7  3.880313E+08  5.821972E+09  1.549158E+09 -9.201291E+08 -3.857629E+08 -7.802740E+08
       544   8  1.725294E+09  8.825848E+09  2.661912E+09 -4.287904E+08 -6.151083E+08 -1.172103E+09
       545   1 -8.719725E+08 -3.116222E+08  6.214868E+08  5.724960E+08 -5.461995E+08  4.330302E+07
       545   2 -1.846788E+08  8.458886E+07  7.968270E+08  3.574404E+08 -2.779098E+08 -1.328978E+08
       545   3 -9.009624E+08 -8.325880E+08  9.041691E+07  6.864345E+08 -1.747607E+08  9.062353E+06
       545   4 -2.709451E+08 -4.506029E+08  1.800010E+08  4.632042E+08  7.758031E+07 -1.763194E+08
       545   5 -1.461535E+09 -8.611819E+08  2.797500E+08  1.106706E+09 -3.797127E+08  4.167219E+07
       545   6 -7.083117E+08 -3.844605E+08  4.990223E+08  8.389480E+08 -1.012431E+08 -1.383627E+08
       545   7 -1.539595E+09 -1.537387E+09 -3.126126E+08  1.204302E+09 -2.617383E+06  1.727887E+07
       545   8 -8.399574E+08 -1.062403E+09 -1.742427E+08  9.300728E+08  2.593651E+08 -1.727373E+08
       546   1 -7.928277E+08 -3.624412E+08 -5.360380E+07  2.973003E+08 -5.689092E+08 -1.630012E+08
       546   2 -7.190054E+08 -6.459794E+08 -2.622033E+08  3.918784E+08 -2.553413E+08 -9.027160E+07
       546   3 -1.447710E+08  5.183681E+07  3.637550E+08  1.429051E+08 -9.161368E+07 -3.660894E+08
       546   4 -1.486079E+08 -2.779478E+08  1.280375E+07  2.305443E+08  9.077557E+07 -2.655466E+08
       546   5 -8.870257E+07  2.661914E+07  2.743518E+08  7.966138E+07 -6.046791E+08 -1.092820E+08
       546   6 -1.304500E+08 -1.108827E+08  7.489238E+07  1.050035E+08 -3.088003E+08 -6.734728E+07
       546   7  1.266108E+08  1.792917E+08  4.834060E+08  3.829131E+07 -1.592184E+08 -3.003801E+08
       546   8  1.963320E+07 -1.502330E+07  1.421534E+08  6.177416E+07  7.165468E+06 -2.281296E+08
       547   1  8.870257E+07 -2.661914E+07 -2.743518E+08 -7.966138E+07 -6.046791E+08 -1.092820E+08
       547   2  1.304500E+08  1.108827E+08 -7.489238E+07 -1.050035E+08 -3.088003E+08 -6.734728E+07
       547   3 -1.266108E+08 -1.792917E+08 -4.834060E+08 -3.829131E+07 -1.592184E+08 -3.003801E+08
       547   4 -1.963320E+07  1.502330E+07 -1.421534E+08 -6.177416E+07  7.165468E+06 -2.281296E+08
       547   5  7.928277E+08  3.624412E+08  5.360380E+07 -2.973003E+08 -5.689092E+08 -1.630012E+08
       547   6  7.190054E+08  6.459794E+08  2.622033E+08 -3.918784E+08 -2.553413E+08 -9.027160E+07
       547   7  1.447710E+08 -5.183681E+07 -3.637550E+08 -1.429051E+08 -9.161367E+07 -3.660894E+08
       547   8  1.486079E+08  2.779478E+08 -1.280375E+07 -2.305443E+08  9.077557E+07 -2.655466E+08
       548   1  8.719725E+08  3.116222E+08 -6.214868E+08 -5.724960E+08 -5.461995E+08  4.330302E+07
       548   2  9.009624E+08  8.325880E+08 -9.041691E+07 -6.864345E+08 -1.747607E+08  9.062353E+06
       548   3  1.846788E+08 -8.458886E+07 -7.968270E+08 -3.574404E+08 -2.779098E+08 -1.328978E+08
       548   4  2.709451E+08  4.506029E+08 -1.800010E+08 -4.632042E+08  7.758031E+07 -1.763194E+08
       548   5  1.461535E+09  8.611819E+08 -2.797500E+08 -1.106706E+09 -3.797127E+08  4.167219E+07
       548   6  1.539595E+09  1.537387E+09  3.126126E+08 -1.204302E+09 -2.617384E+06  1.727887E+07
       548   7  7.083117E+08  3.844605E+08 -4.990223E+08 -8.389480E+08 -1.012431E+08 -1.383627E+08
       548   8  8.399574E+08  1.062403E+09  1.742427E+08 -9.300728E+08  2.593651E+08 -1.727373E+08
       549   1 -2.918159E+08 -2.793112E+09 -1.120678E+08  1.017088E+09 -4.652752E+08  1.590903E+08
       549   2 -3.535326E+08 -2.121630E+09 -1.992955E+08  1.020733E+09 -1.978069E+08  8.079550E+07
       549   3  3.126061E+08 -2.331177E+09 -3.876186E+08  5.666595E+08 -3.050921E+08 -2.845086E+08
       549   4  3.673963E+08 -1.462397E+09 -1.829358E+08  5.744126E+08 -1.197829E+08 -1.154805E+08
       549   5 -8.723648E+08 -4.775505E+09 -8.809504E+08  1.513282E+09 -4.723021E+08 -8.117602E+07
       549   6 -8.349068E+08 -3.573886E+09 -7.793845E+08  1.539238E+09 -1.709027E+08 -1.011609E+08
       549   7  2.248980E+08 -3.855002E+09 -8.710784E+08  7.939322E+08 -3.906507E+08 -4.951974E+08
       549   8  3.855700E+08 -2.402297E+09 -4.594537E+08  8.286362E+08 -1.670786E+08 -2.617714E+08
       550   1 -3.157887E+08 -1.883821E+09 -4.572996E+08  6.589137E+08 -4.889064E+08  1.006440E+08
       550   2  2.040108E+08 -1.466504E+09 -3.244660E+08  3.813022E+08 -2.732435E+08 -2.332505E+08
       550   3 -3.189396E+08 -1.433125E+09 -4.075709E+08  6.553474E+08 -2.431271E+08  8.012935E+07
       550   4  2.365262E+08 -9.300140E+08 -1.764154E+08  3.796369E+08 -1.077469E+08 -7.214997E+07
       550   5  9.431240E+05 -4.192099E+08  7.710332E+07  1.765554E+08 -4.941112E+08  1.631028E+08
       550   6  7.758984E+07 -3.700233E+08 -3.344800E+07  1.021696E+08 -2.540024E+08 -1.799989E+08
       550   7 -3.560343E+07 -3.341484E+08  7.122796E+06  1.755998E+08 -2.588943E+08  1.244370E+08
       550   8  7.673594E+07 -2.358376E+08 -1.609953E+07  1.017234E+08 -1.004166E+08 -3.894460E+07
       551   1 -9.431238E+05  4.192099E+08 -7.710332E+07 -1.765554E+08 -4.941112E+08  1.631028E+08
       551   2 -7.758984E+07  3.700233E+08  3.344800E+07 -1.021696E+08 -2.540024E+08 -1.799989E+08
       551   3  3.560343E+07  3.341484E+08 -7.122796E+06 -1.755998E+08 -2.588943E+08  1.244370E+08
       551   4 -7.673594E+07  2.358376E+08  1.609953E+07 -1.017234E+08 -1.004166E+08 -3.894460E+07
       551   5  3.157887E+08  1.883821E+09  4.572996E+08 -6.589137E+08 -4.889064E+08  1.006440E+08
       551   6 -2.040108E+08  1.466504E+09  3.244660E+08 -3.813022E+08 -2.732435E+08 -2.332505E+08
       551   7  3.189396E+08  1.433125E+09  4.075709E+08 -6.553474E+08 -2.431271E+08  8.012935E+07
       551   8 -2.365262E+08  9.300140E+08  1.764154E+08 -3.796369E+08 -1.077469E+08 -7.214997E+07
       552   1  2.918159E+08  2.793112E+09  1.120678E+08 -1.017088E+09 -4.652752E+08  1.590903E+08
       552   2 -3.126061E+08  2.331177E+09  3.876186E+08 -5.666595E+08 -3.050921E+08 -2.845086E+08
       552   3  3.535325E+08  2.121630E+09  1.992955E+08 -1.020733E+09 -1.978069E+08  8.079550E+07
       552   4 -3.673963E+08  1.462397E+09  1.829358E+08 -5.744126E+08 -1.197829E+08 -1.154805E+08
       552   5  8.723648E+08  4.775505E+09  8.809504E+08 -1.513282E+09 -4.723021E+08 -8.117603E+07
       552   6 -2.248980E+08  3.855002E+09  8.710784E+08 -7.939322E+08 -3.906507E+08 -4.951974E+08
       552   7  8.349068E+08  3.573886E+09  7.793845E+08 -1.539238E+09 -1.709027E+08 -1.011609E+08
       552   8 -3.855700E+08  2.402297E+09  4.594537E+08 -8.286362E+08 -1.670786E+08 -2.617714E+08
       553   1 -4.110620E+08 -2.543952E+08  2.050302E+08  2.897495E+08 -3.025964E+08  1.475361E+08
       553   2 -1.378465E+08 -9.889318E+07  1.311331E+08  1.704953E+08 -3.048888E+08  9.391994E+07
       553   3 -3.831107E+08 -4.898554E+08 -5.343548E+07  3.369047E+08 -1.377430E+08  1.023832E+08
       553   4 -6.792297E+07 -2.699683E+08  3.104117E+05  2.141746E+08 -1.398838E+08  6.316609E+07
       553   5 -6.639413E+08 -5.254010E+08  4.786466E+07  5.296396E+08 -1.884246E+08  1.725016E+08
       553   6 -3.559993E+08 -3.120546E+08  1.738869E+06  3.816950E+08 -2.272211E+08  1.394169E+08
       553   7 -6.665640E+08 -8.486172E+08 -2.461000E+08  5.612628E+08 -4.941984E+07  9.167204E+07
       553   8 -3.142333E+08 -5.637898E+08 -1.617291E+08  4.112470E+08 -8.576999E+07  7.588249E+07
       554   1 -3.871387E+08 -2.583468E+08 -1.101314E+08  1.592679E+08 -3.661506E+08  1.064583E+08
       554   2 -2.834672E+08 -3.459144E+08 -1.338601E+08  2.009417E+08 -1.870493E+08  1.601678E+08
       554   3 -1.161503E+08 -8.686968E+07 -2.351446E+07  7.349734E+07 -3.115432E+08  6.683285E+07
       554   4 -2.537176E+07 -1.710045E+08 -5.309301E+07  1.120243E+08 -1.940623E+08  1.483302E+08
       554   5 -6.846234E+07 -3.395266E+07  5.278976E+07  4.267572E+07 -3.865423E+08  9.761634E+07
       554   6 -5.274554E+07 -6.947821E+07  1.828727E+07  5.384217E+07 -2.074883E+08  1.512605E+08
       554   7 -1.533055E+07 -7.484832E+06  3.054692E+07  1.969355E+07 -3.320018E+08  5.802853E+07
       554   8 -4.340392E+06 -4.336258E+07 -8.491010E+06  3.001681E+07 -2.145640E+08  1.394658E+08
       555   1  6.846234E+07  3.395266E+07 -5.278976E+07 -4.267572E+07 -3.865423E+08  9.761634E+07
       555   2  5.274554E+07  6.947821E+07 -1.828727E+07 -5.384217E+07 -2.074883E+08  1.512605E+08
       555   3  1.533055E+07  7.484832E+06 -3.054692E+07 -1.969355E+07 -3.320018E+08  5.802853E+07
       555   4  4.340392E+06  4.336258E+07  8.491010E+06 -3.001681E+07 -2.145640E+08  1.394658E+08
       555   5  3.871387E+08  2.583468E+08  1.101314E+08 -1.592679E+08 -3.661506E+08  1.064583E+08
       555   6  2.834672E+08  3.459144E+08  1.338601E+08 -2.009417E+08 -1.870493E+08  1.601678E+08
       555   7  1.161503E+08  8.686968E+07  2.351446E+07 -7.349734E+07 -3.115432E+08  6.683285E+07
       555   8  2.537176E+07  1.710045E+08  5.309301E+07 -1.120243E+08 -1.940623E+08  1.483302E+08
       556   1  4.110620E+08  2.543952E+08 -2.050302E+08 -2.897495E+08 -3.025964E+08  1.475361E+08
       556   2  3.831107E+08  4.898554E+08  5.343548E+07 -3.369047E+08 -1.377430E+08  1.023832E+08
       556   3  1.378465E+08  9.889318E+07 -1.311331E+08 -1.704953E+08 -3.048888E+08  9.391994E+07
       556   4  6.792297E+07  2.699683E+08 -3.104122E+05 -2.141746E+08 -1.398838E+08  6.316609E+07
       556   5  6.639413E+08  5.254010E+08 -4.786466E+07 -5.296396E+08 -1.884246E+08  1.725016E+08
       556   6  6.665640E+08  8.486172E+08  2.461000E+08 -5.612628E+08 -4.941984E+07  9.167204E+07
       556   7  3.559993E+08  3.120546E+08 -1.738868E+06 -3.816949E+08 -2.272211E+08  1.394169E+08
       556   8  3.142333E+08  5.637898E+08  1.617291E+08 -4.112470E+08 -8.576999E+07  7.588249E+07
       557   1  2.849994E+08 -9.349411E+08  1.826288E+08  5.122376E+08 -2.175411E+08  1.507939E+08
       557   2 -1.731601E+07 -9.609439E+08 -9.825151E+07  4.432175E+08 -4.716010E+07  1.661234E+08
       557   3  7.055398E+08 -7.234262E+08  9.581474E+07  3.531807E+08 -6.797631E+07  1.477892E+07
       557   4  4.561002E+08 -6.656836E+08 -1.056425E+07  2.774953E+08  5.175744E+07  1.188902E+08
       557   5  2.828866E+08 -1.621132E+09 -2.386224E+07  7.755672E+08 -2.125180E+08  2.623696E+07
       557   6 -4.972696E+07 -1.505135E+09 -2.712320E+08  7.024042E+08 -1.562255E+07  7.790366E+07
       557   7  9.677603E+08 -1.180425E+09  3.738114E+07  5.116843E+08 -1.112693E+08 -8.260316E+07
       557   8  6.834427E+08 -9.664847E+08 -3.260181E+07  4.319275E+08  3.808095E+07  6.163437E+07
       558   1  9.924764E+07 -6.654128E+08 -9.066944E+07  3.279724E+08 -2.413553E+08  1.758296E+08
       558   2  4.469476E+08 -4.724215E+08  1.357408E+07  2.327888E+08 -5.452643E+07  4.979103E+07
       558   3 -5.994193E+07 -6.564197E+08 -1.573834E+08  2.747339E+08 -6.046206E+07  2.397864E+08
       558   4  2.791777E+08 -4.530834E+08 -3.675793E+07  1.742729E+08  5.879781E+07  1.544771E+08
       558   5  6.003401E+07 -1.448561E+08  5.373346E+07  8.787994E+07 -2.362236E+08  1.984689E+08
       558   6  1.287197E+08 -1.176246E+08  2.454478E+07  6.237557E+07 -4.361135E+07  6.917750E+07
       558   7  8.233577E+06 -1.515922E+08  1.451750E+07  7.361472E+07 -5.850402E+07  2.580762E+08
       558   8  8.131525E+07 -1.148935E+08  5.340316E+06  4.669629E+07  6.616786E+07  1.690605E+08
       559   1 -6.003401E+07  1.448561E+08 -5.373346E+07 -8.787994E+07 -2.362236E+08  1.984689E+08
       559   2 -1.287197E+08  1.176246E+08 -2.454478E+07 -6.237557E+07 -4.361135E+07  6.917750E+07
       559   3 -8.233577E+06  1.515922E+08 -1.451750E+07 -7.361472E+07 -5.850402E+07  2.580762E+08
       559   4 -8.131525E+07  1.148935E+08 -5.340316E+06 -4.669629E+07  6.616786E+07  1.690605E+08
       559   5 -9.924764E+07  6.654128E+08  9.066944E+07 -3.279724E+08 -2.413553E+08  1.758296E+08
       559   6 -4.469476E+08  4.724215E+08 -1.357408E+07 -2.327888E+08 -5.452643E+07  4.979103E+07
       559   7  5.994192E+07  6.564197E+08  1.573834E+08 -2.747339E+08 -6.046206E+07  2.397864E+08
       559   8 -2.791777E+08  4.530834E+08  3.675793E+07 -1.742729E+08  5.879781E+07  1.544771E+08
       560   1 -2.849994E+08  9.349411E+08 -1.826288E+08 -5.122376E+08 -2.175411E+08  1.507939E+08
       560   2 -7.055398E+08  7.234262E+08 -9.581474E+07 -3.531807E+08 -6.797631E+07  1.477892E+07
       560   3  1.731600E+07  9.609439E+08  9.825151E+07 -4.432175E+08 -4.716010E+07  1.661234E+08
       560   4 -4.561002E+08  6.656836E+08  1.056425E+07 -2.774953E+08  5.175744E+07  1.188902E+08
       560   5 -2.828866E+08  1.621132E+09  2.386224E+07 -7.755672E+08 -2.125180E+08  2.623696E+07
       560   6 -9.677603E+08  1.180425E+09 -3.738114E+07 -5.116843E+08 -1.112693E+08 -8.260316E+07
       560   7  4.972696E+07  1.505135E+09  2.712320E+08 -7.024042E+08 -1.562255E+07  7.790366E+07
       560   8 -6.834427E+08  9.664847E+08  3.260181E+07 -4.319275E+08  3.808095E+07  6.163437E+07
       561   1 -8.439817E+06 -3.593924E+07  1.237201E+08  1.211695E+08 -5.140858E+07  1.007100E+08
       561   2  6.371831E+06  8.695031E+05  5.787553E+07  8.850779E+07 -9.423129E+07  1.021720E+08
       561   3 -1.767159E+07 -1.125327E+08  9.906100E+07  1.072257E+08  3.751405E+07  1.287459E+08
       561   4 -1.724272E+07 -8.452702E+07  4.438757E+04  7.576652E+07 -8.682102E+06  1.477137E+08
       561   5 -3.183295E+07 -1.160610E+08  9.266561E+07  2.015565E+08 -3.075912E+07  1.243093E+08
       561   6  1.687890E+07 -3.004397E+07  5.175361E+07  1.498973E+08 -6.606943E+07  1.198817E+08
       561   7 -5.016307E+07 -2.407537E+08  5.084727E+07  1.781762E+08  6.491632E+07  1.598516E+08
       561   8 -1.511983E+07 -1.595983E+08 -2.184012E+07  1.285292E+08  2.566082E+07  1.723124E+08
       562   1 -3.172401E+07 -3.703597E+07  3.229119E+07  7.235761E+07 -5.211400E+07  1.987868E+08
       562   2 -2.360471E+07 -7.078459E+07  4.760195E+07  6.408463E+07  7.978234E+07  2.935731E+08
       562   3 -2.393900E+07 -1.632147E+07 -1.309384E+07  5.208227E+07 -1.369989E+08  2.450453E+08
       562   4 -2.126933E+07 -5.205076E+07 -1.011521E+07  4.452388E+07 -3.707340E+06  3.588063E+08
       562   5  1.384931E+07  1.242597E+07  6.080176E+07  1.938816E+07 -5.883968E+07  1.776740E+08
       562   6  2.573843E+07  1.309662E+07  8.756926E+07  1.717143E+07  6.993324E+07  2.689883E+08
       562   7 -6.843402E+06 -4.802291E+06 -4.509405E+06  1.395540E+07 -1.471994E+08  2.266566E+08
       562   8 -6.813933E+05 -8.929252E+06  8.997617E+06  1.193014E+07 -1.676674E+07  3.372311E+08
       563   1 -1.384931E+07 -1.242597E+07 -6.080176E+07 -1.938816E+07 -5.883968E+07  1.776740E+08
       563   2 -2.573843E+07 -1.309662E+07 -8.756926E+07 -1.717143E+07  6.993324E+07  2.689883E+08
       563   3  6.843402E+06  4.802291E+06  4.509405E+06 -1.395540E+07 -1.471994E+08  2.266566E+08
       563   4  6.813933E+05  8.929252E+06 -8.997617E+06 -1.193014E+07 -1.676674E+07  3.372311E+08
       563   5  3.172401E+07  3.703597E+07 -3.229119E+07 -7.235761E+07 -5.211400E+07  1.987868E+08
       563   6  2.360471E+07  7.078459E+07 -4.760195E+07 -6.408463E+07  7.978234E+07  2.935731E+08
       563   7  2.393900E+07  1.632147E+07  1.309384E+07 -5.208227E+07 -1.369989E+08  2.450453E+08
       563   8  2.126933E+07  5.205076E+07  1.011521E+07 -4.452388E+07 -3.707340E+06  3.588063E+08
       564   1  8.439817E+06  3.593924E+07 -1.237201E+08 -1.211695E+08 -5.140858E+07  1.007100E+08
       564   2  1.767159E+07  1.125327E+08 -9.906100E+07 -1.072257E+08  3.751405E+07  1.287460E+08
       564   3 -6.371831E+06 -8.695031E+05 -5.787553E+07 -8.850779E+07 -9.423130E+07  1.021720E+08
       564   4  1.724272E+07  8.452702E+07 -4.438770E+04 -7.576652E+07 -8.682102E+06  1.477137E+08
       564   5  3.183295E+07  1.160610E+08 -9.266561E+07 -2.015565E+08 -3.075912E+07  1.243093E+08
       564   6  5.016307E+07  2.407537E+08 -5.084727E+07 -1.781762E+08  6.491632E+07  1.598516E+08
       564   7 -1.687890E+07  3.004397E+07 -5.175361E+07 -1.498973E+08 -6.606943E+07  1.198817E+08
       564   8  1.511983E+07  1.595983E+08  2.184012E+07 -1.285292E+08  2.566082E+07  1.723124E+08
       565   1  2.756755E+08 -4.336467E+08  8.416195E+07  1.258227E+08  8.621557E+07  1.949124E+08
       565   2 -9.545388E+06 -6.522431E+08 -5.855678E+07  1.910838E+07  2.317748E+08  2.945083E+08
       565   3  5.096627E+08 -4.659401E+08  4.836640E+07  9.412097E+07  1.565301E+08  1.883660E+08
       565   4  1.891462E+08 -7.122128E+08 -1.194125E+08 -2.404024E+07  2.790528E+08  3.072377E+08
       565   5  4.921169E+08 -6.132781E+08  9.520491E+07  2.457304E+08  5.850482E+07  1.695240E+08
       565   6  1.445801E+08 -8.441825E+08 -6.990095E+07  1.214177E+08  2.027213E+08  2.676307E+08
       565   7  8.343272E+08 -5.845461E+08  1.101839E+08  1.849716E+08  1.307514E+08  1.614630E+08
       565   8  4.446010E+08 -8.445539E+08 -8.247841E+07  4.736374E+07  2.517834E+08  2.786875E+08
       566   1  1.281408E+08 -3.169476E+08  6.636570E+05  6.461890E+07  1.212366E+08  2.848181E+08
       566   2  3.010557E+08 -3.404168E+08  3.546687E+06  4.800454E+07  1.756200E+08  2.229698E+08
       566   3 -7.050339E+07 -4.774827E+08 -8.603445E+07 -1.446386E+07  3.039985E+08  4.418372E+08
       566   4  7.047892E+07 -5.284535E+08 -1.163955E+08 -3.957249E+07  3.095830E+08  3.588526E+08
       566   5  5.853754E+07 -6.072354E+07  5.664990E+07  1.731458E+07  1.391332E+08  2.913103E+08
       566   6  8.715262E+07 -8.472941E+07  1.608198E+07  1.286278E+07  1.885789E+08  2.333331E+08
       566   7  1.420358E+07 -9.484620E+07  5.416860E+07 -3.875579E+06  3.253270E+08  4.521357E+08
       566   8  2.775253E+07 -1.327309E+08 -1.049665E+07 -1.060342E+07  3.263517E+08  3.734260E+08
       567   1 -5.853754E+07  6.072354E+07 -5.664990E+07 -1.731458E+07  1.391332E+08  2.913103E+08
       567   2 -8.715262E+07  8.472941E+07 -1.608198E+07 -1.286278E+07  1.885789E+08  2.333331E+08
       567   3 -1.420358E+07  9.484620E+07 -5.416860E+07  3.875579E+06  3.253270E+08  4.521357E+08
       567   4 -2.775253E+07  1.327309E+08  1.049665E+07  1.060342E+07  3.263517E+08  3.734260E+08
       567   5 -1.281408E+08  3.169476E+08 -6.636569E+05 -6.461890E+07  1.212366E+08  2.848181E+08
       567   6 -3.010557E+08  3.404168E+08 -3.546687E+06 -4.800454E+07  1.756200E+08  2.229698E+08
       567   7  7.050339E+07  4.774827E+08  8.603445E+07  1.446386E+07  3.039985E+08  4.418372E+08
       567   8 -7.047892E+07  5.284535E+08  1.163955E+08  3.957249E+07  3.095830E+08  3.588526E+08
       568   1 -2.756755E+08  4.336467E+08 -8.416195E+07 -1.258227E+08  8.621557E+07  1.949124E+08
       568   2 -5.096627E+08  4.659401E+08 -4.836640E+07 -9.412097E+07  1.565301E+08  1.883660E+08
       568   3  9.545389E+06  6.522430E+08  5.855678E+07 -1.910838E+07  2.317748E+08  2.945083E+08
       568   4 -1.891462E+08  7.122128E+08  1.194125E+08  2.404024E+07  2.790528E+08  3.072377E+08
       568   5 -4.921169E+08  6.132781E+08 -9.520491E+07 -2.457304E+08  5.850482E+07  1.695240E+08
       568   6 -8.343272E+08  5.845461E+08 -1.101839E+08 -1.849716E+08  1.307514E+08  1.614630E+08
       568   7 -1.445801E+08  8.441825E+08  6.990095E+07 -1.214177E+08  2.027213E+08  2.676307E+08
       568   8 -4.446010E+08  8.445539E+08  8.247841E+07 -4.736374E+07  2.517834E+08  2.786875E+08
